     Program PWSCF v.7.2 starts on  8May2023 at  6:10:52

     Reading input from ./DFTData/AuIn2/relax/Relax_V700.00_0.in
Warning: card &CELL ignored
Warning: card / ignored

     Current dimensions of program PWSCF are:
     Max number of different atomic species (ntypx) = 10
     Max number of k-points (npk) =  40000
     Max angular momentum in pseudopotentials (lmaxx) =  4
     file In.pbe-dn-rrkjus_psl.1.0.0.UPF: wavefunction(s)  5S 4D renormalized

     R & G space division:  proc/nbgrp/npool/nimage =      20
     Subspace diagonalization in iterative solution of the eigenvalue problem:
     a serial algorithm will be used

     Using Slab Decomposition

     bravais-lattice index     =            7
     lattice parameter (alat)  =      11.9798  a.u.
     unit-cell volume          =     700.0000 (a.u.)^3
     number of atoms/cell      =            6
     number of atomic types    =            2
     number of electrons       =        74.00
     number of Kohn-Sham states=           37
     kinetic-energy cutoff     =     100.0000  Ry
     charge density cutoff     =     400.0000  Ry
     scf convergence threshold =      1.0E-06
     mixing beta               =       0.7000
     number of iterations used =            8  plain     mixing
     energy convergence thresh.=      1.0E-04
     force convergence thresh. =      1.0E-02
     Exchange-correlation= PBE
                           (   1   4   3   4   0   0   0)
     nstep                     =           50

     celldm(1)=  11.979823  celldm(2)=   0.000000  celldm(3)=   0.814286
     celldm(4)=   0.000000  celldm(5)=   0.000000  celldm(6)=   0.000000

     crystal axes: (cart. coord. in units of alat)
               a(1) = (   0.500000  -0.500000   0.407143 )
               a(2) = (   0.500000   0.500000   0.407143 )
               a(3) = (  -0.500000  -0.500000   0.407143 )

     reciprocal axes: (cart. coord. in units 2 pi/alat)
               b(1) = (  1.000000 -1.000000  0.000000 )
               b(2) = (  0.000000  1.000000  1.228070 )
               b(3) = ( -1.000000  0.000000  1.228070 )

     PseudoPot. # 1 for Au read from file:
     ./pseudos/Au.pbe-n-rrkjus_psl.1.0.0.UPF
     MD5 check sum: d7e77ba19504afed2c9b41c931dde4f0
     Pseudo is Ultrasoft + core correction, Zval = 11.0
     Generated using &quot;atomic&quot; code by A. Dal Corso  v.6.3
     Using radial grid of 1279 points,  6 beta functions with:
                l(1) =   0
                l(2) =   0
                l(3) =   1
                l(4) =   1
                l(5) =   2
                l(6) =   2
     Q(r) pseudized with 0 coefficients

     PseudoPot. # 2 for In read from file:
     ./pseudos/In.pbe-dn-rrkjus_psl.1.0.0.UPF
     MD5 check sum: 7267d4f9f57825930b619e54710f1f3b
     Pseudo is Ultrasoft + core correction, Zval = 13.0
     Generated using &quot;atomic&quot; code by A. Dal Corso  v.6.3
     Using radial grid of 1241 points,  6 beta functions with:
                l(1) =   0
                l(2) =   0
                l(3) =   1
                l(4) =   1
                l(5) =   2
                l(6) =   2
     Q(r) pseudized with 0 coefficients

     atomic species   valence    mass     pseudopotential
        Au            11.00   196.96660     Au( 1.00)
        In            13.00   114.81800     In( 1.00)

     16 Sym. Ops., with inversion, found ( 8 have fractional translation)

   Cartesian axes

     site n.     atom                  positions (alat units)
         1           Au  tau(   1) = (   0.0000000   0.0000000   0.2035714  )
         2           Au  tau(   2) = (   0.0000000   0.0000000  -0.2035714  )
         3           In  tau(   3) = (   0.1304000   0.6304000   0.0000000  )
         4           In  tau(   4) = (  -0.1304000   0.3696000   0.0000000  )
         5           In  tau(   5) = (   0.3696005   0.1303995   0.0000004  )
         6           In  tau(   6) = (   0.6303995  -0.1303995  -0.0000004  )

     number of k points=   102

     Number of k-points >= 100: set verbosity='high' to print them.

     Initial potential from superposition of free atoms

     starting charge      73.9849, renormalised to      74.0000
     Starting wfcs are   54 randomized atomic wfcs

     Self-consistent Calculation

     iteration #  1     ecut=   100.00 Ry     beta= 0.70
     Davidson diagonalization with overlap
     ethr =  1.00E-02,  avg # of iterations =  2.0

     Threshold (ethr) on eigenvalues was too large:
     Diagonalizing with lowered threshold

     Davidson diagonalization with overlap
     ethr =  4.41E-04,  avg # of iterations =  4.0

     total energy              =    -731.25804797 Ry
     estimated scf accuracy    <       0.43295114 Ry

[...]

     iteration #  6     ecut=   100.00 Ry     beta= 0.70
     Davidson diagonalization with overlap
     c_bands:  1 eigenvalues not converged
     ethr =  1.43E-06,  avg # of iterations =  5.9

[...]

     End of self-consistent calculation

     Number of k-points >= 100: set verbosity='high' to print the bands.

     highest occupied level (ev):    19.2207

!    total energy              =    -731.45979259 Ry
     estimated scf accuracy    <          6.6E-09 Ry

     The total energy is the sum of the following terms:
     one-electron contribution =     -58.86856759 Ry
     hartree contribution      =     112.93225086 Ry
     xc contribution           =    -250.23696083 Ry
     ewald contribution        =    -535.28651503 Ry

     convergence has been achieved in   9 iterations

     Forces acting on atoms (cartesian axes, Ry/au):

     atom    1 type  1   force =     0.00000000    0.00000000   -0.00000000
     atom    2 type  1   force =    -0.00000000    0.00000000    0.00000000
     atom    3 type  2   force =     0.14814206    0.14814206    0.00000000
     atom    4 type  2   force =    -0.14814206   -0.14814206   -0.00000000
     atom    5 type  2   force =    -0.14814206    0.14814206   -0.00000000
     atom    6 type  2   force =     0.14814206   -0.14814206   -0.00000000
     The non-local contrib.  to forces
     atom    1 type  1   force =     0.00000000   -0.00000000   -0.00000000
     atom    2 type  1   force =    -0.00000000    0.00000000    0.00000000
     atom    3 type  2   force =     0.17612269    0.17612269    0.00000000
     atom    4 type  2   force =    -0.17612269   -0.17612269    0.00000000
     atom    5 type  2   force =    -0.17612269    0.17612269    0.00000000
     atom    6 type  2   force =     0.17612269   -0.17612269   -0.00000000
     The ionic contribution  to forces
     atom    1 type  1   force =    -0.00002168   -0.00002168   -0.00000000
     atom    2 type  1   force =     0.00002168    0.00002168    0.00000000
     atom    3 type  2   force =     3.55328638    3.55328638   -0.00000000
     atom    4 type  2   force =    -3.55328638   -3.55328638    0.00000000
     atom    5 type  2   force =    -3.55342022    3.55342022   -0.00003635
     atom    6 type  2   force =     3.55342022   -3.55342022    0.00003635
     The local contribution  to forces
     atom    1 type  1   force =    -0.00000000   -0.00000000    0.00000000
     atom    2 type  1   force =     0.00000000    0.00000000   -0.00000000
     atom    3 type  2   force =    -3.56116767   -3.56116767    0.00000000
     atom    4 type  2   force =     3.56116767    3.56116767   -0.00000000
     atom    5 type  2   force =     3.56077551   -3.56077551   -0.00033867
     atom    6 type  2   force =    -3.56077551    3.56077551    0.00033867
     The core correction contribution to forces
     atom    1 type  1   force =    -0.00000000   -0.00000000    0.00000000
     atom    2 type  1   force =     0.00000000    0.00000000    0.00000000
     atom    3 type  2   force =    -0.02046438   -0.02046438   -0.00000000
     atom    4 type  2   force =     0.02046438    0.02046438    0.00000000
     atom    5 type  2   force =     0.02042603   -0.02042603   -0.00003141
     atom    6 type  2   force =    -0.02042603    0.02042603    0.00003141
     The Hubbard contrib.    to forces
     atom    1 type  1   force =     0.00000000    0.00000000    0.00000000
     atom    2 type  1   force =     0.00000000    0.00000000    0.00000000
     atom    3 type  2   force =     0.00000000    0.00000000    0.00000000
     atom    4 type  2   force =     0.00000000    0.00000000    0.00000000
     atom    5 type  2   force =     0.00000000    0.00000000    0.00000000
     atom    6 type  2   force =     0.00000000    0.00000000    0.00000000
     The SCF correction term to forces
     atom    1 type  1   force =     0.00000000    0.00000000   -0.00000000
     atom    2 type  1   force =    -0.00000000   -0.00000000   -0.00000000
     atom    3 type  2   force =     0.00008286    0.00008286    0.00000000
     atom    4 type  2   force =    -0.00008286   -0.00008286   -0.00000000
     atom    5 type  2   force =    -0.00008286    0.00008286    0.00000000
     atom    6 type  2   force =     0.00008286   -0.00008286   -0.00000000

     Total force =     0.419009     Total SCF correction =     0.000234

     BFGS Geometry Optimization
     Energy error            =      0.0E+00 Ry
     Gradient error          =      1.5E-01 Ry/Bohr

     number of scf cycles    =   1
     number of bfgs steps    =   0

     energy             new  =    -731.4597925862 Ry

     new trust radius        =       0.2095045066 bohr
     new conv_thr            =       0.0000010000 Ry

ATOMIC_POSITIONS (crystal)
Au            0.0000000000        0.2500000000        0.2500000000
Au            0.0000000000       -0.2500000000       -0.2500000000
In           -0.5000000000        0.6427659636       -0.1427659636
In           -0.5000000000        0.3572340364        0.1427659636
In            0.2144690727        0.1427659636       -0.3572340364
In            0.7855309273       -0.1427659636       -0.6427659636

     Writing config-only to output data dir ./tmp/AuIn2_Relax.save/
     NEW-OLD atomic charge density approx. for the potential

[...]

     Total force =     0.096978     Total SCF correction =     0.001465
     Energy error            =      1.0E-01 Ry
     Gradient error          =      3.4E-02 Ry/Bohr

[...]

     energy             old  =    -731.4597925862 Ry
     energy             new  =    -731.5610157594 Ry

     CASE: energy            _new < energy            _old

[...]

     Total force =     0.004188     Total SCF correction =     0.000056
     Energy error            =      1.4E-03 Ry
     Gradient error          =      1.5E-03 Ry/Bohr

     number of scf cycles    =   4
     number of bfgs steps    =   3

     energy             old  =    -731.5695034330 Ry
     energy             new  =    -731.5708999248 Ry

     CASE: energy            _new < energy            _old

     new trust radius        =       0.0048439059 bohr
     new conv_thr            =       0.0000000100 Ry

ATOMIC_POSITIONS (crystal)
Au            0.0000000000        0.2500000000        0.2500000000
Au            0.0000000000       -0.2500000000       -0.2500000000
In           -0.5000000000        0.6488814879       -0.1488814879
In           -0.5000000000        0.3511185121        0.1488814879
In            0.2022380242        0.1488814879       -0.3511185121
In            0.7977619758       -0.1488814879       -0.6488814879

     Writing config-only to output data dir ./tmp/AuIn2_Relax.save/
     NEW-OLD atomic charge density approx. for the potential

     Self-consistent Calculation

[...]

     Threshold (ethr) on eigenvalues was too large:
     Diagonalizing with lowered threshold

     Davidson diagonalization with overlap
     ethr =  1.93E-09,  avg # of iterations =  9.1

[...]

     iteration #  3     ecut=   100.00 Ry     beta= 0.70
     Davidson diagonalization with overlap
     ethr =  1.66E-10,  avg # of iterations =  4.6

     total energy              =    -731.57092248 Ry
     estimated scf accuracy    <       0.00000002 Ry

     iteration #  4     ecut=   100.00 Ry     beta= 0.70
     Davidson diagonalization with overlap
     c_bands:  1 eigenvalues not converged
     c_bands:  1 eigenvalues not converged
     ethr =  3.12E-11,  avg # of iterations =  5.1

     End of self-consistent calculation

     Number of k-points >= 100: set verbosity='high' to print the bands.

     highest occupied level (ev):    19.7936

!    total energy              =    -731.57092250 Ry
     estimated scf accuracy    <          8.1E-10 Ry

     The total energy is the sum of the following terms:
     one-electron contribution =     -54.46839847 Ry
     hartree contribution      =     110.92374379 Ry
     xc contribution           =    -250.21057325 Ry
     ewald contribution        =    -537.81569456 Ry

     convergence has been achieved in   4 iterations

     Forces acting on atoms (cartesian axes, Ry/au):

     atom    1 type  1   force =    -0.00000000    0.00000000    0.00000000
     atom    2 type  1   force =    -0.00000000    0.00000000    0.00000000
     atom    3 type  2   force =     0.00011613    0.00011613   -0.00000000
     atom    4 type  2   force =    -0.00011613   -0.00011613   -0.00000000
     atom    5 type  2   force =    -0.00011613    0.00011613   -0.00000000
     atom    6 type  2   force =     0.00011613   -0.00011613    0.00000000
     The non-local contrib.  to forces
     atom    1 type  1   force =    -0.00000000    0.00000000    0.00000000
     atom    2 type  1   force =     0.00000000    0.00000000   -0.00000000
     atom    3 type  2   force =     0.14089280    0.14089280    0.00000000
     atom    4 type  2   force =    -0.14089280   -0.14089280    0.00000000
     atom    5 type  2   force =    -0.14089280    0.14089280   -0.00000000
     atom    6 type  2   force =     0.14089280   -0.14089280    0.00000000
     The ionic contribution  to forces
     atom    1 type  1   force =    -0.00002502   -0.00002502    0.00000000
     atom    2 type  1   force =     0.00002502    0.00002502   -0.00000000
     atom    3 type  2   force =    -0.43224996   -0.43224996    0.00000000
     atom    4 type  2   force =     0.43224996    0.43224996   -0.00000000
     atom    5 type  2   force =     0.43215016   -0.43215016   -0.00004873
     atom    6 type  2   force =    -0.43215016    0.43215016    0.00004873
     The local contribution  to forces
     atom    1 type  1   force =    -0.00000000    0.00000000    0.00000000
     atom    2 type  1   force =     0.00000000   -0.00000000    0.00000000
     atom    3 type  2   force =     0.29689216    0.29689216    0.00000000
     atom    4 type  2   force =    -0.29689216   -0.29689216   -0.00000000
     atom    5 type  2   force =    -0.29730222    0.29730222   -0.00033773
     atom    6 type  2   force =     0.29730222   -0.29730222    0.00033773
     The core correction contribution to forces
     atom    1 type  1   force =     0.00000000    0.00000000   -0.00000000
     atom    2 type  1   force =    -0.00000000   -0.00000000    0.00000000
     atom    3 type  2   force =    -0.00570538   -0.00570538    0.00000000
     atom    4 type  2   force =     0.00570538    0.00570538   -0.00000000
     atom    5 type  2   force =     0.00566690   -0.00566690   -0.00003137
     atom    6 type  2   force =    -0.00566690    0.00566690    0.00003137
     The Hubbard contrib.    to forces
     atom    1 type  1   force =     0.00000000    0.00000000    0.00000000
     atom    2 type  1   force =     0.00000000    0.00000000    0.00000000
     atom    3 type  2   force =     0.00000000    0.00000000    0.00000000
     atom    4 type  2   force =     0.00000000    0.00000000    0.00000000
     atom    5 type  2   force =     0.00000000    0.00000000    0.00000000
     atom    6 type  2   force =     0.00000000    0.00000000    0.00000000
     The SCF correction term to forces
     atom    1 type  1   force =     0.00000000    0.00000000   -0.00000000
     atom    2 type  1   force =    -0.00000000   -0.00000000    0.00000000
     atom    3 type  2   force =     0.00001233    0.00001233   -0.00000000
     atom    4 type  2   force =    -0.00001233   -0.00001233    0.00000000
     atom    5 type  2   force =    -0.00001234    0.00001234    0.00000000
     atom    6 type  2   force =     0.00001234   -0.00001234   -0.00000000

     Total force =     0.000328     Total SCF correction =     0.000035
     SCF correction compared to forces is large: reduce conv_thr to get better values
     Energy error            =      2.3E-05 Ry
     Gradient error          =      1.2E-04 Ry/Bohr

     bfgs converged in   5 scf cycles and   4 bfgs steps
     (criteria: energy <  1.0E-04 Ry, force <  1.0E-02 Ry/Bohr)

     End of BFGS Geometry Optimization

     Final energy             =    -731.5709224975 Ry

     File ./tmp/AuIn2_Relax.bfgs deleted, as requested
Begin final coordinates

ATOMIC_POSITIONS (crystal)
Au            0.0000000000        0.2500000000        0.2500000000
Au            0.0000000000       -0.2500000000       -0.2500000000
In           -0.5000000000        0.6488814879       -0.1488814879
In           -0.5000000000        0.3511185121        0.1488814879
In            0.2022380242        0.1488814879       -0.3511185121
In            0.7977619758       -0.1488814879       -0.6488814879
End final coordinates

     Writing all to output data dir ./tmp/AuIn2_Relax.save/

     General routines

     Parallel routines

   This run was terminated on:   6:59:13   8May2023

   JOB DONE.
Note: The following floating-point exceptions are signalling: IEEE_INVALID_FLAG