     Program PWSCF v.7.2 starts on 12May2023 at  6:34:41

     Reading input from ./DFTData/CuIn2/relax/Relax_V841.97_0.in
Warning: card &CELL ignored
Warning: card / ignored

     Current dimensions of program PWSCF are:
     Max number of different atomic species (ntypx) = 10
     Max number of k-points (npk) =  40000
     Max angular momentum in pseudopotentials (lmaxx) =  4
     file Cu.pbe-dn-rrkjus_psl.1.0.0.UPF: wavefunction(s)  3D renormalized
     file In.pbe-dn-rrkjus_psl.1.0.0.UPF: wavefunction(s)  5S 4D renormalized

     R & G space division:  proc/nbgrp/npool/nimage =      20
     Subspace diagonalization in iterative solution of the eigenvalue problem:
     a serial algorithm will be used

     Using Slab Decomposition

     bravais-lattice index     =            7
     lattice parameter (alat)  =      12.8930  a.u.
     unit-cell volume          =     841.9724 (a.u.)^3
     number of atoms/cell      =            6
     number of atomic types    =            2
     number of electrons       =        74.00
     number of Kohn-Sham states=           37
     kinetic-energy cutoff     =     100.0000  Ry
     charge density cutoff     =     400.0000  Ry
     scf convergence threshold =      1.0E-06
     mixing beta               =       0.7000
     number of iterations used =            8  plain     mixing
     energy convergence thresh.=      1.0E-06
     force convergence thresh. =      1.0E-02
     Exchange-correlation= PBE
                           (   1   4   3   4   0   0   0)
     nstep                     =           50

     celldm(1)=  12.893012  celldm(2)=   0.000000  celldm(3)=   0.785714
     celldm(4)=   0.000000  celldm(5)=   0.000000  celldm(6)=   0.000000

     crystal axes: (cart. coord. in units of alat)
               a(1) = (   0.500000  -0.500000   0.392857 )
               a(2) = (   0.500000   0.500000   0.392857 )
               a(3) = (  -0.500000  -0.500000   0.392857 )

     reciprocal axes: (cart. coord. in units 2 pi/alat)
               b(1) = (  1.000000 -1.000000  0.000000 )
               b(2) = (  0.000000  1.000000  1.272727 )
               b(3) = ( -1.000000  0.000000  1.272727 )

     PseudoPot. # 1 for Cu read from file:
     ./pseudos/Cu.pbe-dn-rrkjus_psl.1.0.0.UPF
     MD5 check sum: ba3d6c84e19846e79d48cdc68ff7152b
     Pseudo is Ultrasoft + core correction, Zval = 11.0
     Generated using &quot;atomic&quot; code by A. Dal Corso  v.6.3
     Using radial grid of 1199 points,  6 beta functions with:
                l(1) =   0
                l(2) =   0
                l(3) =   1
                l(4) =   1
                l(5) =   2
                l(6) =   2
     Q(r) pseudized with 0 coefficients

     PseudoPot. # 2 for In read from file:
     ./pseudos/In.pbe-dn-rrkjus_psl.1.0.0.UPF
     MD5 check sum: 7267d4f9f57825930b619e54710f1f3b
     Pseudo is Ultrasoft + core correction, Zval = 13.0
     Generated using &quot;atomic&quot; code by A. Dal Corso  v.6.3
     Using radial grid of 1241 points,  6 beta functions with:
                l(1) =   0
                l(2) =   0
                l(3) =   1
                l(4) =   1
                l(5) =   2
                l(6) =   2
     Q(r) pseudized with 0 coefficients

     atomic species   valence    mass     pseudopotential
        Cu            11.00    63.54600     Cu( 1.00)
        In            13.00   114.81800     In( 1.00)

     16 Sym. Ops., with inversion, found ( 8 have fractional translation)

   Cartesian axes

     site n.     atom                  positions (alat units)
         1           Cu  tau(   1) = (   0.0000000   0.0000000   0.1964286  )
         2           Cu  tau(   2) = (   0.0000000   0.0000000  -0.1964286  )
         3           In  tau(   3) = (   0.1581920   0.6581920   0.0000000  )
         4           In  tau(   4) = (  -0.1581920   0.3418080   0.0000000  )
         5           In  tau(   5) = (   0.3418085   0.1581915   0.0000004  )
         6           In  tau(   6) = (   0.6581915  -0.1581915  -0.0000004  )

     number of k points=   102

     Number of k-points >= 100: set verbosity='high' to print them.

     Initial potential from superposition of free atoms

     starting charge      73.9847, renormalised to      74.0000
     Starting wfcs are   54 randomized atomic wfcs

     Self-consistent Calculation

     iteration #  1     ecut=   100.00 Ry     beta= 0.70
     Davidson diagonalization with overlap
     ethr =  1.00E-02,  avg # of iterations =  2.0

     Threshold (ethr) on eigenvalues was too large:
     Diagonalizing with lowered threshold

     Davidson diagonalization with overlap
     ethr =  6.62E-05,  avg # of iterations =  5.7

     total energy              =    -806.43950326 Ry
     estimated scf accuracy    <       0.07967607 Ry

[...]

     total energy              =    -806.46512879 Ry
     estimated scf accuracy    <       0.00022444 Ry

     iteration #  7     ecut=   100.00 Ry     beta= 0.70
     Davidson diagonalization with overlap
     ethr =  3.03E-07,  avg # of iterations =  4.5

     End of self-consistent calculation

     Number of k-points >= 100: set verbosity='high' to print the bands.

     highest occupied level (ev):    13.7681

!    total energy              =    -806.46516909 Ry
     estimated scf accuracy    <       0.00000015 Ry

     The total energy is the sum of the following terms:
     one-electron contribution =    -213.44575311 Ry
     hartree contribution      =     185.71040785 Ry
     xc contribution           =    -274.15247563 Ry
     ewald contribution        =    -504.57734821 Ry

     convergence has been achieved in   7 iterations

     Forces acting on atoms (cartesian axes, Ry/au):

     atom    1 type  1   force =     0.00000000    0.00000000   -0.00000000
     atom    2 type  1   force =    -0.00000000    0.00000000    0.00000000
     atom    3 type  2   force =     0.00334783    0.00334783    0.00000000
     atom    4 type  2   force =    -0.00334783   -0.00334783    0.00000000
     atom    5 type  2   force =    -0.00334783    0.00334783    0.00000000
     atom    6 type  2   force =     0.00334783   -0.00334783    0.00000000
     The non-local contrib.  to forces
     atom    1 type  1   force =     0.00000000    0.00000000    0.00000000
     atom    2 type  1   force =     0.00000000    0.00000000   -0.00000000
     atom    3 type  2   force =     0.03036407    0.03036407    0.00000000
     atom    4 type  2   force =    -0.03036407   -0.03036407    0.00000000
     atom    5 type  2   force =    -0.03036407    0.03036407    0.00000000
     atom    6 type  2   force =     0.03036407   -0.03036407   -0.00000000
     The ionic contribution  to forces
     atom    1 type  1   force =    -0.00002191   -0.00002191    0.00000000
     atom    2 type  1   force =     0.00002191    0.00002191   -0.00000000
     atom    3 type  2   force =    -1.76134814   -1.76134814   -0.00000000
     atom    4 type  2   force =     1.76134814    1.76134814    0.00000000
     atom    5 type  2   force =     1.76127399   -1.76127399   -0.00004863
     atom    6 type  2   force =    -1.76127399    1.76127399    0.00004863
     The local contribution  to forces
     atom    1 type  1   force =     0.00000000    0.00000000    0.00000000
     atom    2 type  1   force =    -0.00000000   -0.00000000   -0.00000000
     atom    3 type  2   force =     1.73433549    1.73433549    0.00000000
     atom    4 type  2   force =    -1.73433549   -1.73433549   -0.00000000
     atom    5 type  2   force =    -1.73479672    1.73479672   -0.00035738
     atom    6 type  2   force =     1.73479672   -1.73479672    0.00035738
     The core correction contribution to forces
     atom    1 type  1   force =    -0.00000000   -0.00000000   -0.00000000
     atom    2 type  1   force =     0.00000000    0.00000000    0.00000000
     atom    3 type  2   force =    -0.00065058   -0.00065058   -0.00000000
     atom    4 type  2   force =     0.00065058    0.00065058    0.00000000
     atom    5 type  2   force =     0.00060928   -0.00060928   -0.00003246
     atom    6 type  2   force =    -0.00060928    0.00060928    0.00003246
     The Hubbard contrib.    to forces
     atom    1 type  1   force =     0.00000000    0.00000000    0.00000000
     atom    2 type  1   force =     0.00000000    0.00000000    0.00000000
     atom    3 type  2   force =     0.00000000    0.00000000    0.00000000
     atom    4 type  2   force =     0.00000000    0.00000000    0.00000000
     atom    5 type  2   force =     0.00000000    0.00000000    0.00000000
     atom    6 type  2   force =     0.00000000    0.00000000    0.00000000
     The SCF correction term to forces
     atom    1 type  1   force =     0.00000003    0.00000003    0.00000000
     atom    2 type  1   force =    -0.00000003   -0.00000003   -0.00000000
     atom    3 type  2   force =     0.00035891    0.00035891   -0.00000000
     atom    4 type  2   force =    -0.00035891   -0.00035891    0.00000000
     atom    5 type  2   force =    -0.00035840    0.00035840    0.00000038
     atom    6 type  2   force =     0.00035840   -0.00035840   -0.00000038

     Total force =     0.009469     Total SCF correction =     0.001014
     SCF correction compared to forces is large: reduce conv_thr to get better values

     BFGS Geometry Optimization
     Energy error            =      0.0E+00 Ry
     Gradient error          =      3.3E-03 Ry/Bohr

     bfgs converged in   1 scf cycles and   0 bfgs steps
     (criteria: energy <  1.0E-06 Ry, force <  1.0E-02 Ry/Bohr)

     End of BFGS Geometry Optimization

     Final energy             =    -806.4651690944 Ry
Begin final coordinates

ATOMIC_POSITIONS (crystal)
Cu            0.0000000000        0.2500000000        0.2500000000
Cu            0.0000000000       -0.2500000000       -0.2500000000
In           -0.5000000000        0.6581920000       -0.1581920000
In           -0.5000000000        0.3418080000        0.1581920000
In            0.1836170000        0.1581920000       -0.3418080000
In            0.8163830000       -0.1581920000       -0.6581920000
End final coordinates

     Writing all to output data dir ./tmp/CuIn2_Relax.save/

     General routines

     Parallel routines

   This run was terminated on:   6:49:49  12May2023

   JOB DONE.
Note: The following floating-point exceptions are signalling: IEEE_INVALID_FLAG