     Program PWSCF v.7.2 starts on 11May2023 at 18:36:45

     Reading input from ./DFTData/CuIn2/relax/Relax_V700.00_0.in
Warning: card &CELL ignored
Warning: card / ignored

     Current dimensions of program PWSCF are:
     Max number of different atomic species (ntypx) = 10
     Max number of k-points (npk) =  40000
     Max angular momentum in pseudopotentials (lmaxx) =  4
     file Cu.pbe-dn-rrkjus_psl.1.0.0.UPF: wavefunction(s)  3D renormalized
     file In.pbe-dn-rrkjus_psl.1.0.0.UPF: wavefunction(s)  5S 4D renormalized

     R & G space division:  proc/nbgrp/npool/nimage =      20
     Subspace diagonalization in iterative solution of the eigenvalue problem:
     a serial algorithm will be used

     Using Slab Decomposition

     bravais-lattice index     =            7
     lattice parameter (alat)  =      12.2739  a.u.
     unit-cell volume          =     700.0000 (a.u.)^3
     number of atoms/cell      =            6
     number of atomic types    =            2
     number of electrons       =        74.00
     number of Kohn-Sham states=           37
     kinetic-energy cutoff     =     100.0000  Ry
     charge density cutoff     =     400.0000  Ry
     scf convergence threshold =      1.0E-06
     mixing beta               =       0.7000
     number of iterations used =            8  plain     mixing
     energy convergence thresh.=      1.0E-06
     force convergence thresh. =      1.0E-02
     Exchange-correlation= PBE
                           (   1   4   3   4   0   0   0)
     nstep                     =           50

     celldm(1)=  12.273923  celldm(2)=   0.000000  celldm(3)=   0.757143
     celldm(4)=   0.000000  celldm(5)=   0.000000  celldm(6)=   0.000000

     crystal axes: (cart. coord. in units of alat)
               a(1) = (   0.500000  -0.500000   0.378571 )
               a(2) = (   0.500000   0.500000   0.378571 )
               a(3) = (  -0.500000  -0.500000   0.378571 )

     reciprocal axes: (cart. coord. in units 2 pi/alat)
               b(1) = (  1.000000 -1.000000  0.000000 )
               b(2) = (  0.000000  1.000000  1.320755 )
               b(3) = ( -1.000000  0.000000  1.320755 )

     PseudoPot. # 1 for Cu read from file:
     ./pseudos/Cu.pbe-dn-rrkjus_psl.1.0.0.UPF
     MD5 check sum: ba3d6c84e19846e79d48cdc68ff7152b
     Pseudo is Ultrasoft + core correction, Zval = 11.0
     Generated using &quot;atomic&quot; code by A. Dal Corso  v.6.3
     Using radial grid of 1199 points,  6 beta functions with:
                l(1) =   0
                l(2) =   0
                l(3) =   1
                l(4) =   1
                l(5) =   2
                l(6) =   2
     Q(r) pseudized with 0 coefficients

     PseudoPot. # 2 for In read from file:
     ./pseudos/In.pbe-dn-rrkjus_psl.1.0.0.UPF
     MD5 check sum: 7267d4f9f57825930b619e54710f1f3b
     Pseudo is Ultrasoft + core correction, Zval = 13.0
     Generated using &quot;atomic&quot; code by A. Dal Corso  v.6.3
     Using radial grid of 1241 points,  6 beta functions with:
                l(1) =   0
                l(2) =   0
                l(3) =   1
                l(4) =   1
                l(5) =   2
                l(6) =   2
     Q(r) pseudized with 0 coefficients

     atomic species   valence    mass     pseudopotential
        Cu            11.00    63.54600     Cu( 1.00)
        In            13.00   114.81800     In( 1.00)

     16 Sym. Ops., with inversion, found ( 8 have fractional translation)

   Cartesian axes

     site n.     atom                  positions (alat units)
         1           Cu  tau(   1) = (   0.0000000   0.0000000   0.1892857  )
         2           Cu  tau(   2) = (   0.0000000   0.0000000  -0.1892857  )
         3           In  tau(   3) = (   0.1304000   0.6304000  -0.0000000  )
         4           In  tau(   4) = (  -0.1304000   0.3696000  -0.0000000  )
         5           In  tau(   5) = (   0.3696005   0.1303995   0.0000004  )
         6           In  tau(   6) = (   0.6303995  -0.1303995  -0.0000004  )

     number of k points=   102

     Number of k-points >= 100: set verbosity='high' to print them.

     Initial potential from superposition of free atoms

     starting charge      73.9847, renormalised to      74.0000
     Starting wfcs are   54 randomized atomic wfcs

     Self-consistent Calculation

     iteration #  1     ecut=   100.00 Ry     beta= 0.70
     Davidson diagonalization with overlap
     ethr =  1.00E-02,  avg # of iterations =  2.0

     Threshold (ethr) on eigenvalues was too large:
     Diagonalizing with lowered threshold

     Davidson diagonalization with overlap
     ethr =  1.13E-04,  avg # of iterations =  5.1

     total energy              =    -806.18483518 Ry
     estimated scf accuracy    <       0.13379108 Ry

[...]

     End of self-consistent calculation

     Number of k-points >= 100: set verbosity='high' to print the bands.

     highest occupied level (ev):    16.4504

!    total energy              =    -806.23067213 Ry
     estimated scf accuracy    <       0.00000016 Ry

     The total energy is the sum of the following terms:
     one-electron contribution =    -165.64592505 Ry
     hartree contribution      =     169.28165822 Ry
     xc contribution           =    -274.80466223 Ry
     ewald contribution        =    -535.06174306 Ry

     convergence has been achieved in  10 iterations

     Forces acting on atoms (cartesian axes, Ry/au):

     atom    1 type  1   force =    -0.00000000    0.00000000    0.00000000
     atom    2 type  1   force =    -0.00000000    0.00000000    0.00000000
     atom    3 type  2   force =     0.15412178    0.15412178   -0.00000000
     atom    4 type  2   force =    -0.15412178   -0.15412178   -0.00000000
     atom    5 type  2   force =    -0.15412178    0.15412178    0.00000000
     atom    6 type  2   force =     0.15412178   -0.15412178   -0.00000000
     The non-local contrib.  to forces
     atom    1 type  1   force =    -0.00000000    0.00000000    0.00000000
     atom    2 type  1   force =     0.00000000    0.00000000    0.00000000
     atom    3 type  2   force =     0.08896666    0.08896666   -0.00000000
     atom    4 type  2   force =    -0.08896666   -0.08896666   -0.00000000
     atom    5 type  2   force =    -0.08896666    0.08896666   -0.00000000
     atom    6 type  2   force =     0.08896666   -0.08896666    0.00000000
     The ionic contribution  to forces
     atom    1 type  1   force =    -0.00001850   -0.00001850   -0.00000000
     atom    2 type  1   force =     0.00001850    0.00001850    0.00000000
     atom    3 type  2   force =     3.61925674    3.61925674    0.00000000
     atom    4 type  2   force =    -3.61925674   -3.61925674   -0.00000000
     atom    5 type  2   force =    -3.61938442    3.61938442   -0.00003774
     atom    6 type  2   force =     3.61938442   -3.61938442    0.00003774
     The local contribution  to forces
     atom    1 type  1   force =     0.00000000   -0.00000000    0.00000000
     atom    2 type  1   force =     0.00000000    0.00000000    0.00000000
     atom    3 type  2   force =    -3.53551427   -3.53551427   -0.00000000
     atom    4 type  2   force =     3.53551427    3.53551427    0.00000000
     atom    5 type  2   force =     3.53510964   -3.53510964   -0.00031991
     atom    6 type  2   force =    -3.53510964    3.53510964    0.00031991
     The core correction contribution to forces
     atom    1 type  1   force =     0.00000000    0.00000000    0.00000000
     atom    2 type  1   force =    -0.00000000   -0.00000000    0.00000000
     atom    3 type  2   force =    -0.01917949   -0.01917949    0.00000000
     atom    4 type  2   force =     0.01917949    0.01917949   -0.00000000
     atom    5 type  2   force =     0.01914021   -0.01914021   -0.00002986
     atom    6 type  2   force =    -0.01914021    0.01914021    0.00002986
     The Hubbard contrib.    to forces
     atom    1 type  1   force =     0.00000000    0.00000000    0.00000000
     atom    2 type  1   force =     0.00000000    0.00000000    0.00000000
     atom    3 type  2   force =     0.00000000    0.00000000    0.00000000
     atom    4 type  2   force =     0.00000000    0.00000000    0.00000000
     atom    5 type  2   force =     0.00000000    0.00000000    0.00000000
     atom    6 type  2   force =     0.00000000    0.00000000    0.00000000
     The SCF correction term to forces
     atom    1 type  1   force =     0.00000000    0.00000000    0.00000000
     atom    2 type  1   force =    -0.00000000   -0.00000000   -0.00000000
     atom    3 type  2   force =     0.00030636    0.00030636   -0.00000000
     atom    4 type  2   force =    -0.00030636   -0.00030636    0.00000000
     atom    5 type  2   force =    -0.00030633    0.00030633    0.00000001
     atom    6 type  2   force =     0.00030633   -0.00030633   -0.00000001

     Total force =     0.435922     Total SCF correction =     0.000866

     BFGS Geometry Optimization
     Energy error            =      0.0E+00 Ry
     Gradient error          =      1.5E-01 Ry/Bohr

     number of scf cycles    =   1
     number of bfgs steps    =   0

     energy             new  =    -806.2306721299 Ry

     new trust radius        =       0.2179611103 bohr
     new conv_thr            =       0.0000010000 Ry

ATOMIC_POSITIONS (crystal)
Cu            0.0000000000        0.2500000000        0.2500000000
Cu            0.0000000000       -0.2500000000       -0.2500000000
In           -0.5000000000        0.6429568473       -0.1429568473
In           -0.5000000000        0.3570431527        0.1429568473
In            0.2140873055        0.1429568473       -0.3570431527
In            0.7859126945       -0.1429568473       -0.6429568473

     Writing config-only to output data dir ./tmp/CuIn2_Relax.save/
     NEW-OLD atomic charge density approx. for the potential

[...]

     iteration #  1     ecut=   100.00 Ry     beta= 0.70
     Davidson diagonalization with overlap
     c_bands:  1 eigenvalues not converged
     c_bands:  1 eigenvalues not converged
     c_bands:  1 eigenvalues not converged
     c_bands:  1 eigenvalues not converged
     c_bands:  1 eigenvalues not converged
     c_bands:  1 eigenvalues not converged
     c_bands:  1 eigenvalues not converged
     c_bands:  1 eigenvalues not converged
     c_bands:  1 eigenvalues not converged
     c_bands:  1 eigenvalues not converged
     c_bands:  1 eigenvalues not converged
     c_bands:  1 eigenvalues not converged
     ethr =  1.00E-06,  avg # of iterations = 15.4

[...]

     Total force =     0.160009     Total SCF correction =     0.000240
     Energy error            =      1.2E-01 Ry
     Gradient error          =      5.7E-02 Ry/Bohr

[...]

     energy             old  =    -806.2306721299 Ry
     energy             new  =    -806.3543042849 Ry

     CASE: energy            _new < energy            _old

[...]

     Davidson diagonalization with overlap
     c_bands:  1 eigenvalues not converged
     c_bands:  1 eigenvalues not converged
     c_bands:  1 eigenvalues not converged
     ethr =  2.70E-09,  avg # of iterations = 10.0

[...]

     iteration # 26     ecut=   100.00 Ry     beta= 0.70
     Davidson diagonalization with overlap
     c_bands:  1 eigenvalues not converged
     ethr =  2.97E-11,  avg # of iterations =  7.2

[...]

     Total force =     0.002405     Total SCF correction =     0.000078
     Energy error            =      1.2E-05 Ry
     Gradient error          =      8.5E-04 Ry/Bohr

[...]

     Davidson diagonalization with overlap
     c_bands:  1 eigenvalues not converged
     c_bands:  1 eigenvalues not converged
     ethr =  1.05E-09,  avg # of iterations = 10.4

[...]

     Total force =     0.000072     Total SCF correction =     0.000075
     SCF correction compared to forces is large: reduce conv_thr to get better values
     Energy error            =      1.4E-05 Ry
     Gradient error          =      2.5E-05 Ry/Bohr

     number of scf cycles    =   8
     number of bfgs steps    =   7

     energy             old  =    -806.3898156466 Ry
     energy             new  =    -806.3898300494 Ry

     CASE: energy            _new < energy            _old

     new trust radius        =       0.0001776495 bohr
     new conv_thr            =       0.0000000100 Ry

ATOMIC_POSITIONS (crystal)
Cu            0.0000000000        0.2500000000        0.2500000000
Cu            0.0000000000       -0.2500000000       -0.2500000000
In           -0.5000000000        0.6581919916       -0.1581919916
In           -0.5000000000        0.3418080084        0.1581919916
In            0.1836170168        0.1581919916       -0.3418080084
In            0.8163829832       -0.1581919916       -0.6581919916

     Writing config-only to output data dir ./tmp/CuIn2_Relax.save/
     NEW-OLD atomic charge density approx. for the potential

     Self-consistent Calculation

[...]

     Threshold (ethr) on eigenvalues was too large:
     Diagonalizing with lowered threshold

     Davidson diagonalization with overlap
     ethr =  6.06E-10,  avg # of iterations =  4.9

[...]

     total energy              =    -806.38983000 Ry
     estimated scf accuracy    <       0.00000033 Ry

     iteration #  3     ecut=   100.00 Ry     beta= 0.70
     Davidson diagonalization with overlap
     ethr =  5.69E-11,  avg # of iterations =  6.1

     End of self-consistent calculation

     Number of k-points >= 100: set verbosity='high' to print the bands.

     highest occupied level (ev):    17.2700

!    total energy              =    -806.38983005 Ry
     estimated scf accuracy    <          5.7E-09 Ry

     The total energy is the sum of the following terms:
     one-electron contribution =    -163.95112438 Ry
     hartree contribution      =     168.64775413 Ry
     xc contribution           =    -274.72234830 Ry
     ewald contribution        =    -536.36411151 Ry

     convergence has been achieved in   3 iterations

     Forces acting on atoms (cartesian axes, Ry/au):

     atom    1 type  1   force =    -0.00000000    0.00000000    0.00000000
     atom    2 type  1   force =     0.00000000    0.00000000   -0.00000000
     atom    3 type  2   force =     0.00005786    0.00005786    0.00000000
     atom    4 type  2   force =    -0.00005786   -0.00005786    0.00000000
     atom    5 type  2   force =    -0.00005786    0.00005786    0.00000000
     atom    6 type  2   force =     0.00005786   -0.00005786   -0.00000000
     The non-local contrib.  to forces
     atom    1 type  1   force =     0.00000000    0.00000000   -0.00000000
     atom    2 type  1   force =    -0.00000000    0.00000000    0.00000000
     atom    3 type  2   force =     0.01792493    0.01792493   -0.00000000
     atom    4 type  2   force =    -0.01792493   -0.01792493   -0.00000000
     atom    5 type  2   force =    -0.01792493    0.01792493    0.00000000
     atom    6 type  2   force =     0.01792493   -0.01792493    0.00000000
     The ionic contribution  to forces
     atom    1 type  1   force =    -0.00002288   -0.00002288   -0.00000000
     atom    2 type  1   force =     0.00002288    0.00002288    0.00000000
     atom    3 type  2   force =    -2.11226455   -2.11226455   -0.00000000
     atom    4 type  2   force =     2.11226455    2.11226455    0.00000000
     atom    5 type  2   force =     2.11218253   -2.11218253   -0.00005453
     atom    6 type  2   force =    -2.11218253    2.11218253    0.00005453
     The local contribution  to forces
     atom    1 type  1   force =     0.00000000    0.00000000    0.00000000
     atom    2 type  1   force =    -0.00000000   -0.00000000   -0.00000000
     atom    3 type  2   force =     2.09389909    2.09389909   -0.00000000
     atom    4 type  2   force =    -2.09389909   -2.09389909    0.00000000
     atom    5 type  2   force =    -2.09432931    2.09432931   -0.00031904
     atom    6 type  2   force =     2.09432931   -2.09432931    0.00031904
     The core correction contribution to forces
     atom    1 type  1   force =    -0.00000000   -0.00000000   -0.00000000
     atom    2 type  1   force =     0.00000000    0.00000000    0.00000000
     atom    3 type  2   force =     0.00007401    0.00007401    0.00000000
     atom    4 type  2   force =    -0.00007401   -0.00007401   -0.00000000
     atom    5 type  2   force =    -0.00011340    0.00011340   -0.00002982
     atom    6 type  2   force =     0.00011340   -0.00011340    0.00002982
     The Hubbard contrib.    to forces
     atom    1 type  1   force =     0.00000000    0.00000000    0.00000000
     atom    2 type  1   force =     0.00000000    0.00000000    0.00000000
     atom    3 type  2   force =     0.00000000    0.00000000    0.00000000
     atom    4 type  2   force =     0.00000000    0.00000000    0.00000000
     atom    5 type  2   force =     0.00000000    0.00000000    0.00000000
     atom    6 type  2   force =     0.00000000    0.00000000    0.00000000
     The SCF correction term to forces
     atom    1 type  1   force =    -0.00000000   -0.00000000    0.00000000
     atom    2 type  1   force =     0.00000000    0.00000000    0.00000000
     atom    3 type  2   force =     0.00014856    0.00014856    0.00000000
     atom    4 type  2   force =    -0.00014856   -0.00014856   -0.00000000
     atom    5 type  2   force =    -0.00014856    0.00014856   -0.00000000
     atom    6 type  2   force =     0.00014856   -0.00014856    0.00000000

     Total force =     0.000164     Total SCF correction =     0.000420
     SCF correction compared to forces is large: reduce conv_thr to get better values
     Energy error            =      2.5E-09 Ry
     Gradient error          =      5.8E-05 Ry/Bohr

     bfgs converged in   9 scf cycles and   8 bfgs steps
     (criteria: energy <  1.0E-06 Ry, force <  1.0E-02 Ry/Bohr)

     End of BFGS Geometry Optimization

     Final energy             =    -806.3898300519 Ry

     File ./tmp/CuIn2_Relax.bfgs deleted, as requested
Begin final coordinates

ATOMIC_POSITIONS (crystal)
Cu            0.0000000000        0.2500000000        0.2500000000
Cu            0.0000000000       -0.2500000000       -0.2500000000
In           -0.5000000000        0.6581919916       -0.1581919916
In           -0.5000000000        0.3418080084        0.1581919916
In            0.1836170168        0.1581919916       -0.3418080084
In            0.8163829832       -0.1581919916       -0.6581919916
End final coordinates

     Writing all to output data dir ./tmp/CuIn2_Relax.save/

     General routines

     Parallel routines

   This run was terminated on:  21: 4:18  11May2023

   JOB DONE.
Note: The following floating-point exceptions are signalling: IEEE_INVALID_FLAG