     Program PWSCF v.7.1 starts on 17May2023 at  8:29:25

     Reading input from CuC1-001.in

     Current dimensions of program PWSCF are:
     Max number of different atomic species (ntypx) = 10
     Max number of k-points (npk) =  40000
     Max angular momentum in pseudopotentials (lmaxx) =  4
     file Cu.pbe-dn-rrkjus_psl.1.0.0.UPF: wavefunction(s)  3D renormalized
     file In.pbe-dn-rrkjus_psl.1.0.0.UPF: wavefunction(s)  5S 4D renormalized
     Message from routine setup:
     using ibrav=0 with symmetry is DISCOURAGED, use correct ibrav instead

     Subspace diagonalization in iterative solution of the eigenvalue problem:
     a serial algorithm will be used

     Using Slab Decomposition

     bravais-lattice index     =            0
     lattice parameter (alat)  =      24.2313  a.u.
     unit-cell volume          =   14227.6247 (a.u.)^3
     number of atoms/cell      =           96
     number of atomic types    =            2
     number of electrons       =      1184.00
     number of Kohn-Sham states=          592
     kinetic-energy cutoff     =      60.0000  Ry
     charge density cutoff     =     240.0000  Ry
     scf convergence threshold =      1.0E-07
     mixing beta               =       0.7000
     number of iterations used =            8  plain     mixing
     Exchange-correlation= PBE
                           (   1   4   3   4   0   0   0)

     celldm(1)=  24.231342  celldm(2)=   0.000000  celldm(3)=   0.000000
     celldm(4)=   0.000000  celldm(5)=   0.000000  celldm(6)=   0.000000

     crystal axes: (cart. coord. in units of alat)
               a(1) = (   1.000000   0.000000   0.000000 )
               a(2) = (   0.000000   1.000000   0.000000 )
               a(3) = (   0.000000   0.000000   1.000000 )

     reciprocal axes: (cart. coord. in units 2 pi/alat)
               b(1) = (  1.000000  0.000000  0.000000 )
               b(2) = (  0.000000  1.000000  0.000000 )
               b(3) = (  0.000000  0.000000  1.000000 )

     PseudoPot. # 1 for Cu read from file:
     ./pseudos/Cu.pbe-dn-rrkjus_psl.1.0.0.UPF
     MD5 check sum: ba3d6c84e19846e79d48cdc68ff7152b
     Pseudo is Ultrasoft + core correction, Zval = 11.0
     Generated using &quot;atomic&quot; code by A. Dal Corso  v.6.3
     Using radial grid of 1199 points,  6 beta functions with:
                l(1) =   0
                l(2) =   0
                l(3) =   1
                l(4) =   1
                l(5) =   2
                l(6) =   2
     Q(r) pseudized with 0 coefficients

     PseudoPot. # 2 for In read from file:
     ./pseudos/In.pbe-dn-rrkjus_psl.1.0.0.UPF
     MD5 check sum: 7267d4f9f57825930b619e54710f1f3b
     Pseudo is Ultrasoft + core correction, Zval = 13.0
     Generated using &quot;atomic&quot; code by A. Dal Corso  v.6.3
     Using radial grid of 1241 points,  6 beta functions with:
                l(1) =   0
                l(2) =   0
                l(3) =   1
                l(4) =   1
                l(5) =   2
                l(6) =   2
     Q(r) pseudized with 0 coefficients

     atomic species   valence    mass     pseudopotential
        Cu            11.00    63.54600     Cu( 1.00)
        In            13.00   114.81800     In( 1.00)

      8 Sym. Ops. (no inversion) found

   Cartesian axes

     site n.     atom                  positions (alat units)
         1           Cu  tau(   1) = (   0.0008254   0.0000000   0.0000000  )
         2           Cu  tau(   2) = (   0.5000000   0.0000000   0.0000000  )
         3           Cu  tau(   3) = (   0.0000000   0.5000000   0.0000000  )
         4           Cu  tau(   4) = (   0.5000000   0.5000000   0.0000000  )
         5           Cu  tau(   5) = (   0.0000000   0.0000000   0.5000000  )
         6           Cu  tau(   6) = (   0.5000000   0.0000000   0.5000000  )
         7           Cu  tau(   7) = (   0.0000000   0.5000000   0.5000000  )
         8           Cu  tau(   8) = (   0.5000000   0.5000000   0.5000000  )
         9           Cu  tau(   9) = (   0.2500000   0.0000000   0.2500000  )
        10           Cu  tau(  10) = (   0.7500000   0.0000000   0.2500000  )
        11           Cu  tau(  11) = (   0.2500000   0.5000000   0.2500000  )
        12           Cu  tau(  12) = (   0.7500000   0.5000000   0.2500000  )
        13           Cu  tau(  13) = (   0.2500000   0.0000000   0.7500000  )
        14           Cu  tau(  14) = (   0.7500000   0.0000000   0.7500000  )
        15           Cu  tau(  15) = (   0.2500000   0.5000000   0.7500000  )
        16           Cu  tau(  16) = (   0.7500000   0.5000000   0.7500000  )
        17           Cu  tau(  17) = (   0.0000000   0.2500000   0.2500000  )
        18           Cu  tau(  18) = (   0.5000000   0.2500000   0.2500000  )
        19           Cu  tau(  19) = (   0.0000000   0.7500000   0.2500000  )
        20           Cu  tau(  20) = (   0.5000000   0.7500000   0.2500000  )
        21           Cu  tau(  21) = (   0.0000000   0.2500000   0.7500000  )
        22           Cu  tau(  22) = (   0.5000000   0.2500000   0.7500000  )
        23           Cu  tau(  23) = (   0.0000000   0.7500000   0.7500000  )
        24           Cu  tau(  24) = (   0.5000000   0.7500000   0.7500000  )
        25           Cu  tau(  25) = (   0.2500000   0.2500000   0.0000000  )
        26           Cu  tau(  26) = (   0.7500000   0.2500000   0.0000000  )
        27           Cu  tau(  27) = (   0.2500000   0.7500000   0.0000000  )
        28           Cu  tau(  28) = (   0.7500000   0.7500000   0.0000000  )
        29           Cu  tau(  29) = (   0.2500000   0.2500000   0.5000000  )
        30           Cu  tau(  30) = (   0.7500000   0.2500000   0.5000000  )
        31           Cu  tau(  31) = (   0.2500000   0.7500000   0.5000000  )
        32           Cu  tau(  32) = (   0.7500000   0.7500000   0.5000000  )
        33           In  tau(  33) = (   0.3750000   0.1250000   0.1250000  )
        34           In  tau(  34) = (   0.8750000   0.1250000   0.1250000  )
        35           In  tau(  35) = (   0.3750000   0.6250000   0.1250000  )
        36           In  tau(  36) = (   0.8750000   0.6250000   0.1250000  )
        37           In  tau(  37) = (   0.3750000   0.1250000   0.6250000  )
        38           In  tau(  38) = (   0.8750000   0.1250000   0.6250000  )
        39           In  tau(  39) = (   0.3750000   0.6250000   0.6250000  )
        40           In  tau(  40) = (   0.8750000   0.6250000   0.6250000  )
        41           In  tau(  41) = (   0.1250000   0.1250000   0.3750000  )
        42           In  tau(  42) = (   0.6250000   0.1250000   0.3750000  )
        43           In  tau(  43) = (   0.1250000   0.6250000   0.3750000  )
        44           In  tau(  44) = (   0.6250000   0.6250000   0.3750000  )
        45           In  tau(  45) = (   0.1250000   0.1250000   0.8750000  )
        46           In  tau(  46) = (   0.6250000   0.1250000   0.8750000  )
        47           In  tau(  47) = (   0.1250000   0.6250000   0.8750000  )
        48           In  tau(  48) = (   0.6250000   0.6250000   0.8750000  )
        49           In  tau(  49) = (   0.3750000   0.3750000   0.3750000  )
        50           In  tau(  50) = (   0.8750000   0.3750000   0.3750000  )
        51           In  tau(  51) = (   0.3750000   0.8750000   0.3750000  )
        52           In  tau(  52) = (   0.8750000   0.8750000   0.3750000  )
        53           In  tau(  53) = (   0.3750000   0.3750000   0.8750000  )
        54           In  tau(  54) = (   0.8750000   0.3750000   0.8750000  )
        55           In  tau(  55) = (   0.3750000   0.8750000   0.8750000  )
        56           In  tau(  56) = (   0.8750000   0.8750000   0.8750000  )
        57           In  tau(  57) = (   0.1250000   0.3750000   0.1250000  )
        58           In  tau(  58) = (   0.6250000   0.3750000   0.1250000  )
        59           In  tau(  59) = (   0.1250000   0.8750000   0.1250000  )
        60           In  tau(  60) = (   0.6250000   0.8750000   0.1250000  )
[...]
        82           In  tau(  82) = (   0.6250000   0.1250000   0.1250000  )
        83           In  tau(  83) = (   0.1250000   0.6250000   0.1250000  )
        84           In  tau(  84) = (   0.6250000   0.6250000   0.1250000  )
        85           In  tau(  85) = (   0.1250000   0.1250000   0.6250000  )
        86           In  tau(  86) = (   0.6250000   0.1250000   0.6250000  )
        87           In  tau(  87) = (   0.1250000   0.6250000   0.6250000  )
        88           In  tau(  88) = (   0.6250000   0.6250000   0.6250000  )
        89           In  tau(  89) = (   0.3750000   0.1250000   0.3750000  )
        90           In  tau(  90) = (   0.8750000   0.1250000   0.3750000  )
        91           In  tau(  91) = (   0.3750000   0.6250000   0.3750000  )
        92           In  tau(  92) = (   0.8750000   0.6250000   0.3750000  )
        93           In  tau(  93) = (   0.3750000   0.1250000   0.8750000  )
        94           In  tau(  94) = (   0.8750000   0.1250000   0.8750000  )
        95           In  tau(  95) = (   0.3750000   0.6250000   0.8750000  )
        96           In  tau(  96) = (   0.8750000   0.6250000   0.8750000  )

     number of k points=     6
                       cart. coord. in units 2pi/alat
        k(    1) = (   0.1250000   0.1250000   0.1250000), wk =   0.2500000
        k(    2) = (   0.1250000   0.1250000   0.3750000), wk =   0.5000000
        k(    3) = (   0.1250000   0.3750000   0.3750000), wk =   0.2500000
        k(    4) = (   0.3750000   0.3750000   0.3750000), wk =   0.2500000
        k(    5) = (   0.3750000  -0.1250000   0.1250000), wk =   0.2500000
        k(    6) = (   0.3750000  -0.3750000   0.1250000), wk =   0.5000000

     Check: negative core charge=   -0.000001

     Initial potential from superposition of free atoms

     starting charge    1183.7547, renormalised to    1184.0000
     Starting wfcs are  864 randomized atomic wfcs

     Self-consistent Calculation

     iteration #  1     ecut=    60.00 Ry     beta= 0.70
     Davidson diagonalization with overlap
     ethr =  1.00E-02,  avg # of iterations =  2.0

     Threshold (ethr) on eigenvalues was too large:
     Diagonalizing with lowered threshold

     Davidson diagonalization with overlap
     ethr =  8.18E-05,  avg # of iterations =  6.0

     total energy              =  -12903.60316930 Ry
     estimated scf accuracy    <       1.40729337 Ry

[...]

     iteration #  8     ecut=    60.00 Ry     beta= 0.70
     Davidson diagonalization with overlap
     ethr =  3.94E-08,  avg # of iterations =  7.8

[...]

     iteration #  9     ecut=    60.00 Ry     beta= 0.70
     Davidson diagonalization with overlap
     c_bands:  1 eigenvalues not converged
     ethr =  1.18E-08,  avg # of iterations = 10.3

[...]

     total energy              =  -12903.96945495 Ry
     estimated scf accuracy    <       0.00000020 Ry

     iteration # 24     ecut=    60.00 Ry     beta= 0.70
     Davidson diagonalization with overlap
     c_bands:  1 eigenvalues not converged
     ethr =  1.73E-11,  avg # of iterations = 10.3

     End of self-consistent calculation

[...]
    -4.2221  -4.2220  -4.2220  -4.2219  -4.2218  -4.2217  -4.2206  -4.2206
    -4.2206  -4.2148  -4.2148  -4.2147  -4.2145  -4.2142  -4.2142  -4.2139
    -4.2138  -4.2138  -4.2127  -4.2127  -4.2127  -4.2033  -4.2032  -4.2032
    -4.2031  -4.2030  -4.2030  -4.2030  -4.2028  -4.2028  -4.1985  -4.1984
    -4.1984  -4.1976  -4.1976  -4.1976  -4.1948  -4.1947  -4.1946  -4.1936
    -4.1936  -4.1935  -4.1935  -4.1934  -4.1934  -4.1914  -4.1914  -4.1914
    -4.1914  -4.1913  -4.1913  -4.1878  -4.1878  -4.1877  -4.1871  -4.1871
    -4.1871  -4.1870  -4.1870  -4.1870  -4.1830  -4.1761  -4.1760  -4.1760
    -4.1757  -4.1757  -4.1730  -4.1730  -4.1729  -4.1682  -4.1682  -4.1682
    -4.1664  -4.1661  -4.1658  -4.1534  -4.1531  -4.1530  -4.1523  -4.1523
    -4.1521  -4.1484  -4.1482  -4.1454  -4.1451  -4.1448  -4.1433  -4.1431
    -4.1428  -4.1427  -4.1424  -4.1423  -4.1368  -4.1368  -4.1365  -4.1363
    -4.1362  -4.1361  -4.1353  -4.1350  -4.1349  -4.1331  -4.1329  -4.1326
    -4.1326  -4.1324  -4.1323  -4.1305  -4.1304  -4.1301  -4.1157  -4.1156
    -4.1153  -4.1152  -4.1150  -4.1149  -4.1089  -4.1086  -4.1085  -4.1078
    -4.1076  -4.1074  -4.1056  -4.1056  -4.1053  -4.1052  -4.1051  -4.1050
    -4.0979  -4.0977  -4.0975  -4.0974  -4.0973  -4.0971  -4.0845  -4.0845
    -4.0842  -4.0841  -4.0837  -4.0837  -4.0650  -4.0648  -4.0647  -4.0594
    -4.0593  -4.0591  -4.0491  -4.0491  -4.0490  -4.0482  -4.0482  -4.0480
    -4.0415  -4.0413  -4.0412  -4.0412  -4.0412  -4.0411  -4.0252  -4.0251
    -4.0247  -4.0247  -4.0244  -4.0243  -4.0036  -4.0036  -4.0034  -4.0033
    -4.0032  -4.0032  -3.9826  -3.9823  -3.9823  -3.8847  -3.8847  -3.8845
    -3.8814  -3.8810  -3.8808  -3.8795  -3.8793  -3.8789  -3.8757  -3.8755
     0.8543   1.5821   1.5824   1.5830   2.0696   2.0699   2.0705   2.2919
     2.2922   2.2928   2.7625   2.7626   2.7628   2.7630   2.7634   2.7639
     2.9430   3.2183   3.2187   3.2192   3.3059   3.3060   3.3062   4.0758
     4.0760   4.0762   4.0903   4.0904   4.0905   4.4180   4.6169   4.6169
     4.6172   4.6172   4.6177   4.6181   4.9720   4.9721   4.9723   4.9725
     4.9728   4.9728   5.1432   5.1434   5.1439   5.4369   5.4371   5.4372
     5.4374   5.4376   5.4378   5.5602   5.5604   5.5605   5.6977   5.6979
     5.6982   5.8624   5.8624   5.8625   6.1051   6.1055   6.1056   6.1057
     6.1058   6.1063   6.1659   6.1661   6.1664   6.3311   6.3313   6.3315
     6.6359   6.6363   6.6364   6.6365   6.6367   6.6369   6.6405   6.6406
     6.6406   6.6936   6.7295   6.7295   6.7297   6.7297   6.7299   6.7300
     6.7353   6.7354   6.7577   6.7578   6.7580   6.8190   6.8193   6.8195
     6.8210   6.8213   6.8217   6.8767   6.8769   6.8770   6.8824   6.8827
     6.8828   6.8851   6.8851   6.8851   6.8907   6.8907   6.8985   6.8985
     6.8985   6.9458   6.9461   6.9462   6.9837   6.9839   6.9840   6.9841
     6.9842   6.9845   7.0138   7.0140   7.0141   7.0403   7.0406   7.0406
     7.1051   7.1055   7.1057   7.1057   7.1060   7.1061   7.1087   7.1090
     7.1093   7.1143   7.1146   7.1146   7.1187   7.1187   7.1188   7.1201
     7.1202   7.1203   7.1203   7.1206   7.1206   7.1216   7.1218   7.1221
     7.1259   7.1260   7.1262   7.1284   7.1285   7.1285   7.1889   7.1890
     7.1890   7.1943   7.1944   7.1946   7.1959   7.1961   7.1961   7.1962
     7.1962   7.1963   7.1990   7.1992   7.2017   7.2019   7.2020   7.2022
     7.2022   7.2024   7.2025   7.2029   7.2030   7.2031   7.2031   7.2032
     7.2034   7.2037   7.2085   7.2087   7.2087   7.2279   7.2279   7.2281
     7.2282   7.2282   7.2282   7.2462   7.2867   7.2868   7.2870   7.2871
     7.2872   7.2872   7.3683   7.3685   7.3685   7.4348   7.4348   7.4350
     7.4350   7.4353   7.4354   7.4621   7.4623   7.4625   7.6381   7.6382
     7.6383   7.6385   7.6389   7.6390   7.8687   7.8688   7.8689   7.9220
     7.9221   7.9223   8.1879   8.1879   8.1881   8.1883   8.1887   8.1890
     8.2730   8.2731   8.2732   8.2809   8.2813   8.2815   8.2815   8.2818
     8.2820   8.6201   8.6201   8.6201   8.6413   8.6416   8.6421   8.9544
     8.9548   8.9554   9.4100   9.4103   9.4106   9.4207   9.4211   9.4215
     9.7004   9.7008   9.7010   9.7083   9.7083   9.7083  10.2831  10.2833
    10.2837  10.3036  10.3040  10.3043  10.3985  10.3988  10.3992  10.4444

[...]

          k = 0.3750-0.3750 0.1250 (111665 PWs)   bands (ev):

    -4.5150  -4.5058  -4.5052  -4.4897  -4.4831  -4.4826  -4.4821  -4.4769
    -4.4767  -4.4748  -4.4674  -4.4523  -4.4499  -4.4498  -4.4442  -4.4436
    -4.4425  -4.4421  -4.4410  -4.4405  -4.4321  -4.4316  -4.4164  -4.4163
    -4.4163  -4.4157  -4.4094  -4.4092  -4.4072  -4.4040  -4.3942  -4.3876
    -4.3871  -4.3870  -4.3856  -4.3855  -4.3850  -4.3808  -4.3807  -4.3802
    -4.3800  -4.3793  -4.3792  -4.3770  -4.3766  -4.3754  -4.3748  -4.3735
    -4.3719  -4.3686  -4.3655  -4.3608  -4.3585  -4.3583  -4.3574  -4.3570
    -4.3567  -4.3565  -4.3544  -4.3507  -4.3502  -4.3497  -4.3495  -4.3453
    -4.3445  -4.3442  -4.3438  -4.3427  -4.3411  -4.3405  -4.3353  -4.3352
    -4.3318  -4.3317  -4.3316  -4.3302  -4.3295  -4.3293  -4.3284  -4.3279
    -4.3278  -4.3277  -4.3214  -4.3201  -4.3198  -4.3093  -4.3091  -4.3091
    -4.3091  -4.3058  -4.3056  -4.3028  -4.2994  -4.2993  -4.2975  -4.2943
    -4.2939  -4.2926  -4.2925  -4.2897  -4.2896  -4.2789  -4.2757  -4.2756
    -4.2715  -4.2713  -4.2713  -4.2712  -4.2705  -4.2694  -4.2693  -4.2603
    -4.2602  -4.2594  -4.2593  -4.2587  -4.2560  -4.2552  -4.2544  -4.2543
    -4.2523  -4.2495  -4.2494  -4.2492  -4.2491  -4.2439  -4.2436  -4.2425
    -4.2394  -4.2391  -4.2391  -4.2385  -4.2383  -4.2367  -4.2366  -4.2352
    -4.2351  -4.2349  -4.2321  -4.2320  -4.2289  -4.2284  -4.2250  -4.2245
    -4.2196  -4.2190  -4.2190  -4.2154  -4.2154  -4.2128  -4.2125  -4.2118
    -4.2089  -4.2088  -4.2088  -4.2088  -4.2080  -4.2079  -4.2051  -4.2050
    -4.2037  -4.2037  -4.2015  -4.2014  -4.2000  -4.2000  -4.1986  -4.1986
    -4.1966  -4.1965  -4.1965  -4.1930  -4.1930  -4.1886  -4.1885  -4.1868
    -4.1866  -4.1860  -4.1858  -4.1851  -4.1850  -4.1850  -4.1845  -4.1833
    -4.1830  -4.1827  -4.1826  -4.1822  -4.1790  -4.1789  -4.1780  -4.1775
    -4.1775  -4.1774  -4.1772  -4.1749  -4.1748  -4.1707  -4.1702  -4.1694
    -4.1692  -4.1685  -4.1669  -4.1667  -4.1646  -4.1645  -4.1606  -4.1591
    -4.1591  -4.1587  -4.1583  -4.1582  -4.1581  -4.1579  -4.1578  -4.1548
    -4.1539  -4.1537  -4.1537  -4.1537  -4.1535  -4.1534  -4.1533  -4.1529
    -4.1528  -4.1492  -4.1478  -4.1473  -4.1472  -4.1337  -4.1336  -4.1322
    -4.1321  -4.1296  -4.1266  -4.1261  -4.1258  -4.1253  -4.1234  -4.1227
    -4.1205  -4.1161  -4.1161  -4.1141  -4.1140  -4.1133  -4.1125  -4.1051
    -4.1026  -4.1026  -4.1023  -4.1022  -4.1020  -4.1019  -4.0999  -4.0995
    -4.0952  -4.0950  -4.0946  -4.0927  -4.0925  -4.0916  -4.0910  -4.0906
    -4.0900  -4.0886  -4.0885  -4.0876  -4.0853  -4.0837  -4.0832  -4.0822
    -4.0814  -4.0763  -4.0761  -4.0738  -4.0737  -4.0705  -4.0697  -4.0691
    -4.0684  -4.0665  -4.0664  -4.0634  -4.0560  -4.0559  -4.0536  -4.0535
    -4.0496  -4.0494  -4.0438  -4.0436  -4.0411  -4.0334  -4.0302  -4.0237
    -3.9913  -3.9907  -3.9877  -3.9872  -3.9834  -3.9828  -3.9779  -3.9774
    -3.9618  -3.9613  -3.9587  -3.9585  -3.9408  -3.9359  -3.9336  -3.9315
    -3.9290  -3.9119  -3.9118  -3.9105  -3.9100  -3.9026  -3.9020  -3.8947
     1.0954   1.3367   1.3374   1.5769   1.8181   2.0524   2.0531   2.2826
     2.3003   2.5282   2.5288   2.7483   2.7868   2.7874   3.0098   3.0102
     3.4296   3.4302   3.4836   3.4839   3.5577   3.5579   3.6922   3.6928
     3.8006   3.8013   4.0384   4.0387   4.2590   4.2666   4.2804   4.2806
     4.4268   4.4274   4.4497   4.4503   4.6165   4.6167   4.6705   4.7724
     4.7730   4.8871   4.8876   4.9646   5.3000   5.3139   5.4195   5.4201
     5.4258   5.4260   5.5577   5.5579   5.7027   5.7029   5.7333   5.7335
     5.7872   5.8479   5.8510   5.8515   6.0073   6.0523   6.0530   6.1856
     6.2674   6.3725   6.3730   6.3822   6.3824   6.4996   6.4998   6.5224
     6.6779   6.6780   6.7196   6.7198   6.7579   6.7749   6.7750   6.7758
     6.7758   6.7763   6.7763   6.7774   6.7838   6.8076   6.8078   6.8181
     6.8187   6.8251   6.8251   6.8289   6.8293   6.8356   6.8359   6.8415
     6.8510   6.8533   6.8534   6.8624   6.8643   6.8704   6.8711   6.8792
     6.8895   6.8908   6.8910   6.8968   6.9188   6.9192   6.9268   6.9273
     6.9366   6.9367   6.9442   6.9445   6.9589   6.9594   6.9714   6.9717
     6.9729   6.9732   6.9734   6.9915   6.9916   7.0273   7.0275   7.0402
     7.0403   7.0480   7.0480   7.0514   7.0521   7.0543   7.0545   7.0591
     7.0728   7.0729   7.0730   7.0734   7.0881   7.0889   7.0896   7.0902
     7.0955   7.1044   7.1078   7.1229   7.1230   7.1249   7.1329   7.1333
     7.1370   7.1482   7.1487   7.1521   7.1587   7.1608   7.1612   7.1648
     7.1650   7.1680   7.1700   7.1703   7.1711   7.1805   7.1810   7.1811
     7.1812   7.1835   7.1911   7.1913   7.1956   7.1957   7.1971   7.1980
     7.1983   7.1987   7.1989   7.1992   7.1995   7.2002   7.2003   7.2004
     7.2008   7.2014   7.2020   7.2030   7.2035   7.2042   7.2043   7.2047
     7.2049   7.2122   7.2122   7.2426   7.2426   7.2488   7.2492   7.2627
     7.2628   7.2691   7.2693   7.3160   7.3262   7.3266   7.3402   7.4267
     7.4270   7.5345   7.5508   7.5509   7.5914   7.5918   7.6009   7.6014
     7.6075   7.6924   7.7695   7.7701   7.8336   7.8338   7.8769   7.8956
     7.8963   7.9413   7.9415   8.0471   8.0473   8.1107   8.1111   8.2457
     8.2825   8.2826   8.4213   8.4219   8.5044   8.5045   8.6352   8.6356
     8.7207   8.7566   8.7568   8.9692   8.9722   8.9727   9.0061   9.0061
     9.1711   9.1712   9.1874   9.1878   9.2308   9.2310   9.2595   9.2602
     9.4130   9.4136   9.5975   9.5996   9.6003   9.6131   9.7837   9.7843
     9.7915   9.8165   9.9618  10.0452  10.0458  10.0477  10.1163  10.1164

     highest occupied level (ev):    10.4444

!    total energy              =  -12903.96945492 Ry
     estimated scf accuracy    <       0.00000010 Ry

     The total energy is the sum of the following terms:
     one-electron contribution =   -3996.75402434 Ry
     hartree contribution      =    3221.79801961 Ry
     xc contribution           =   -4386.34508182 Ry
     ewald contribution        =   -7742.66836837 Ry

     convergence has been achieved in  24 iterations

     Forces acting on atoms (cartesian axes, Ry/au):

     atom    1 type  1   force =    -0.00161457    0.00000000    0.00000000
     atom    2 type  1   force =    -0.00004800    0.00000000    0.00000000
     atom    3 type  1   force =    -0.00000157    0.00000000    0.00000000
     atom    4 type  1   force =     0.00000789    0.00000000    0.00000000
     atom    5 type  1   force =    -0.00000157    0.00000000    0.00000000
     atom    6 type  1   force =     0.00000789    0.00000000    0.00000000
     atom    7 type  1   force =     0.00002750    0.00000000    0.00000000
     atom    8 type  1   force =    -0.00002365    0.00000000    0.00000000
     atom    9 type  1   force =    -0.00002191    0.00000000    0.00006738
     atom   10 type  1   force =     0.00006436   -0.00000000    0.00001403
     atom   11 type  1   force =     0.00003689    0.00000000    0.00001005
     atom   12 type  1   force =    -0.00004666    0.00000000    0.00001092
     atom   13 type  1   force =    -0.00002191    0.00000000   -0.00006738
     atom   14 type  1   force =     0.00006436    0.00000000   -0.00001403
     atom   15 type  1   force =     0.00003689    0.00000000   -0.00001005
     atom   16 type  1   force =    -0.00004666    0.00000000   -0.00001092
     atom   17 type  1   force =     0.00002159   -0.00002021   -0.00002021
     atom   18 type  1   force =    -0.00001583    0.00006676    0.00006676
     atom   19 type  1   force =     0.00002159    0.00002021   -0.00002021
     atom   20 type  1   force =    -0.00001583   -0.00006676    0.00006676
     atom   21 type  1   force =     0.00002159   -0.00002021    0.00002021
     atom   22 type  1   force =    -0.00001583    0.00006676   -0.00006676
     atom   23 type  1   force =     0.00002159    0.00002021    0.00002021
     atom   24 type  1   force =    -0.00001583   -0.00006676   -0.00006676
     atom   25 type  1   force =    -0.00002191    0.00006738    0.00000000
     atom   26 type  1   force =     0.00006436    0.00001403    0.00000000
     atom   27 type  1   force =    -0.00002191   -0.00006738    0.00000000
     atom   28 type  1   force =     0.00006436   -0.00001403   -0.00000000
     atom   29 type  1   force =     0.00003689    0.00001005    0.00000000
     atom   30 type  1   force =    -0.00004666    0.00001092    0.00000000
     atom   31 type  1   force =     0.00003689   -0.00001005    0.00000000
     atom   32 type  1   force =    -0.00004666   -0.00001092    0.00000000
     atom   33 type  2   force =    -0.00007087    0.00006930    0.00006930
     atom   34 type  2   force =     0.00025281   -0.00025195   -0.00025195
     atom   35 type  2   force =    -0.00000885    0.00001274   -0.00000543
     atom   36 type  2   force =    -0.00000661   -0.00003012    0.00003253
     atom   37 type  2   force =    -0.00000885   -0.00000543    0.00001274
     atom   38 type  2   force =    -0.00000661    0.00003253   -0.00003012
     atom   39 type  2   force =     0.00006453   -0.00007183   -0.00007183
     atom   40 type  2   force =    -0.00004726    0.00005028    0.00005028
     atom   41 type  2   force =     0.00001919    0.00000465   -0.00001124
     atom   42 type  2   force =     0.00001453    0.00002699    0.00000700
     atom   43 type  2   force =     0.00003554    0.00003597   -0.00003597
     atom   44 type  2   force =    -0.00005560   -0.00005457    0.00005457
     atom   45 type  2   force =     0.00015180    0.00017301   -0.00017301
     atom   46 type  2   force =     0.00000562    0.00006155   -0.00006155
     atom   47 type  2   force =     0.00001919    0.00001124   -0.00000465
     atom   48 type  2   force =     0.00001453   -0.00000700   -0.00002699
     atom   49 type  2   force =     0.00006453    0.00007183    0.00007183
     atom   50 type  2   force =    -0.00004726   -0.00005028   -0.00005028
     atom   51 type  2   force =    -0.00000885    0.00000543   -0.00001274
     atom   52 type  2   force =    -0.00000661   -0.00003253    0.00003012
     atom   53 type  2   force =    -0.00000885   -0.00001274    0.00000543
     atom   54 type  2   force =    -0.00000661    0.00003012   -0.00003253
     atom   55 type  2   force =    -0.00007087   -0.00006930   -0.00006930
     atom   56 type  2   force =     0.00025281    0.00025195    0.00025195
     atom   57 type  2   force =     0.00001919   -0.00001124    0.00000465
     atom   58 type  2   force =     0.00001453    0.00000700    0.00002699
     atom   59 type  2   force =     0.00015180   -0.00017301    0.00017301
     atom   60 type  2   force =     0.00000562   -0.00006155    0.00006155
[...]
     atom   82 type  2   force =     0.00000562    0.00006155    0.00006155
     atom   83 type  2   force =     0.00001919    0.00001124    0.00000465
     atom   84 type  2   force =     0.00001453   -0.00000700    0.00002699
     atom   85 type  2   force =     0.00001919    0.00000465    0.00001124
     atom   86 type  2   force =     0.00001453    0.00002699   -0.00000700
     atom   87 type  2   force =     0.00003554    0.00003597    0.00003597
     atom   88 type  2   force =    -0.00005560   -0.00005457   -0.00005457
     atom   89 type  2   force =    -0.00000885   -0.00000543   -0.00001274
     atom   90 type  2   force =    -0.00000661    0.00003253    0.00003012
     atom   91 type  2   force =     0.00006453   -0.00007183    0.00007183
     atom   92 type  2   force =    -0.00004726    0.00005028   -0.00005028
     atom   93 type  2   force =    -0.00007087    0.00006930   -0.00006930
     atom   94 type  2   force =     0.00025281   -0.00025195    0.00025195
     atom   95 type  2   force =    -0.00000885    0.00001274    0.00000543
     atom   96 type  2   force =    -0.00000661   -0.00003012   -0.00003253

     Total force =     0.002014     Total SCF correction =     0.001432
     SCF correction compared to forces is large: reduce conv_thr to get better values

     Computing stress (Cartesian axis) and pressure

          total   stress  (Ry/bohr**3)                   (kbar)     P=       -5.99
  -0.00004271   0.00000000   0.00000000           -6.28        0.00        0.00
   0.00000000  -0.00003976   0.00000000            0.00       -5.85        0.00
   0.00000000   0.00000000  -0.00003976            0.00        0.00       -5.85

     General routines

     Parallel routines

   This run was terminated on:  14:26:14  18May2023

   JOB DONE.