     Program PWSCF v.7.1 starts on 17May2023 at 12: 4:10

     Reading input from CuC1-002.in

     Current dimensions of program PWSCF are:
     Max number of different atomic species (ntypx) = 10
     Max number of k-points (npk) =  40000
     Max angular momentum in pseudopotentials (lmaxx) =  4
     file Cu.pbe-dn-rrkjus_psl.1.0.0.UPF: wavefunction(s)  3D renormalized
     file In.pbe-dn-rrkjus_psl.1.0.0.UPF: wavefunction(s)  5S 4D renormalized
     Message from routine setup:
     using ibrav=0 with symmetry is DISCOURAGED, use correct ibrav instead

     Subspace diagonalization in iterative solution of the eigenvalue problem:
     a serial algorithm will be used

     Using Slab Decomposition

     bravais-lattice index     =            0
     lattice parameter (alat)  =      24.2313  a.u.
     unit-cell volume          =   14227.6247 (a.u.)^3
     number of atoms/cell      =           96
     number of atomic types    =            2
     number of electrons       =      1184.00
     number of Kohn-Sham states=          592
     kinetic-energy cutoff     =      60.0000  Ry
     charge density cutoff     =     240.0000  Ry
     scf convergence threshold =      1.0E-07
     mixing beta               =       0.7000
     number of iterations used =            8  plain     mixing
     Exchange-correlation= PBE
                           (   1   4   3   4   0   0   0)

     celldm(1)=  24.231342  celldm(2)=   0.000000  celldm(3)=   0.000000
     celldm(4)=   0.000000  celldm(5)=   0.000000  celldm(6)=   0.000000

     crystal axes: (cart. coord. in units of alat)
               a(1) = (   1.000000   0.000000   0.000000 )
               a(2) = (   0.000000   1.000000   0.000000 )
               a(3) = (   0.000000   0.000000   1.000000 )

     reciprocal axes: (cart. coord. in units 2 pi/alat)
               b(1) = (  1.000000  0.000000  0.000000 )
               b(2) = (  0.000000  1.000000  0.000000 )
               b(3) = (  0.000000  0.000000  1.000000 )

     PseudoPot. # 1 for Cu read from file:
     ./pseudos/Cu.pbe-dn-rrkjus_psl.1.0.0.UPF
     MD5 check sum: ba3d6c84e19846e79d48cdc68ff7152b
     Pseudo is Ultrasoft + core correction, Zval = 11.0
     Generated using &quot;atomic&quot; code by A. Dal Corso  v.6.3
     Using radial grid of 1199 points,  6 beta functions with:
                l(1) =   0
                l(2) =   0
                l(3) =   1
                l(4) =   1
                l(5) =   2
                l(6) =   2
     Q(r) pseudized with 0 coefficients

     PseudoPot. # 2 for In read from file:
     ./pseudos/In.pbe-dn-rrkjus_psl.1.0.0.UPF
     MD5 check sum: 7267d4f9f57825930b619e54710f1f3b
     Pseudo is Ultrasoft + core correction, Zval = 13.0
     Generated using &quot;atomic&quot; code by A. Dal Corso  v.6.3
     Using radial grid of 1241 points,  6 beta functions with:
                l(1) =   0
                l(2) =   0
                l(3) =   1
                l(4) =   1
                l(5) =   2
                l(6) =   2
     Q(r) pseudized with 0 coefficients

     atomic species   valence    mass     pseudopotential
        Cu            11.00    63.54600     Cu( 1.00)
        In            13.00   114.81800     In( 1.00)

      4 Sym. Ops. (no inversion) found ( 2 have fractional translation)

   Cartesian axes

     site n.     atom                  positions (alat units)
         1           Cu  tau(   1) = (   0.0000000   0.0000000   0.0000000  )
         2           Cu  tau(   2) = (   0.5000000   0.0000000   0.0000000  )
         3           Cu  tau(   3) = (   0.0000000   0.5000000   0.0000000  )
         4           Cu  tau(   4) = (   0.5000000   0.5000000   0.0000000  )
         5           Cu  tau(   5) = (   0.0000000   0.0000000   0.5000000  )
         6           Cu  tau(   6) = (   0.5000000   0.0000000   0.5000000  )
         7           Cu  tau(   7) = (   0.0000000   0.5000000   0.5000000  )
         8           Cu  tau(   8) = (   0.5000000   0.5000000   0.5000000  )
         9           Cu  tau(   9) = (   0.2500000   0.0000000   0.2500000  )
        10           Cu  tau(  10) = (   0.7500000   0.0000000   0.2500000  )
        11           Cu  tau(  11) = (   0.2500000   0.5000000   0.2500000  )
        12           Cu  tau(  12) = (   0.7500000   0.5000000   0.2500000  )
        13           Cu  tau(  13) = (   0.2500000   0.0000000   0.7500000  )
        14           Cu  tau(  14) = (   0.7500000   0.0000000   0.7500000  )
        15           Cu  tau(  15) = (   0.2500000   0.5000000   0.7500000  )
        16           Cu  tau(  16) = (   0.7500000   0.5000000   0.7500000  )
        17           Cu  tau(  17) = (   0.0000000   0.2500000   0.2500000  )
        18           Cu  tau(  18) = (   0.5000000   0.2500000   0.2500000  )
        19           Cu  tau(  19) = (   0.0000000   0.7500000   0.2500000  )
        20           Cu  tau(  20) = (   0.5000000   0.7500000   0.2500000  )
        21           Cu  tau(  21) = (   0.0000000   0.2500000   0.7500000  )
        22           Cu  tau(  22) = (   0.5000000   0.2500000   0.7500000  )
        23           Cu  tau(  23) = (   0.0000000   0.7500000   0.7500000  )
        24           Cu  tau(  24) = (   0.5000000   0.7500000   0.7500000  )
        25           Cu  tau(  25) = (   0.2500000   0.2500000   0.0000000  )
        26           Cu  tau(  26) = (   0.7500000   0.2500000   0.0000000  )
        27           Cu  tau(  27) = (   0.2500000   0.7500000   0.0000000  )
        28           Cu  tau(  28) = (   0.7500000   0.7500000   0.0000000  )
        29           Cu  tau(  29) = (   0.2500000   0.2500000   0.5000000  )
        30           Cu  tau(  30) = (   0.7500000   0.2500000   0.5000000  )
        31           Cu  tau(  31) = (   0.2500000   0.7500000   0.5000000  )
        32           Cu  tau(  32) = (   0.7500000   0.7500000   0.5000000  )
        33           In  tau(  33) = (   0.3758254   0.1250000   0.1250000  )
        34           In  tau(  34) = (   0.8750000   0.1250000   0.1250000  )
        35           In  tau(  35) = (   0.3750000   0.6250000   0.1250000  )
        36           In  tau(  36) = (   0.8750000   0.6250000   0.1250000  )
        37           In  tau(  37) = (   0.3750000   0.1250000   0.6250000  )
        38           In  tau(  38) = (   0.8750000   0.1250000   0.6250000  )
        39           In  tau(  39) = (   0.3750000   0.6250000   0.6250000  )
        40           In  tau(  40) = (   0.8750000   0.6250000   0.6250000  )
        41           In  tau(  41) = (   0.1250000   0.1250000   0.3750000  )
        42           In  tau(  42) = (   0.6250000   0.1250000   0.3750000  )
        43           In  tau(  43) = (   0.1250000   0.6250000   0.3750000  )
        44           In  tau(  44) = (   0.6250000   0.6250000   0.3750000  )
        45           In  tau(  45) = (   0.1250000   0.1250000   0.8750000  )
        46           In  tau(  46) = (   0.6250000   0.1250000   0.8750000  )
        47           In  tau(  47) = (   0.1250000   0.6250000   0.8750000  )
        48           In  tau(  48) = (   0.6250000   0.6250000   0.8750000  )
        49           In  tau(  49) = (   0.3750000   0.3750000   0.3750000  )
        50           In  tau(  50) = (   0.8750000   0.3750000   0.3750000  )
        51           In  tau(  51) = (   0.3750000   0.8750000   0.3750000  )
        52           In  tau(  52) = (   0.8750000   0.8750000   0.3750000  )
        53           In  tau(  53) = (   0.3750000   0.3750000   0.8750000  )
        54           In  tau(  54) = (   0.8750000   0.3750000   0.8750000  )
        55           In  tau(  55) = (   0.3750000   0.8750000   0.8750000  )
        56           In  tau(  56) = (   0.8750000   0.8750000   0.8750000  )
        57           In  tau(  57) = (   0.1250000   0.3750000   0.1250000  )
        58           In  tau(  58) = (   0.6250000   0.3750000   0.1250000  )
        59           In  tau(  59) = (   0.1250000   0.8750000   0.1250000  )
        60           In  tau(  60) = (   0.6250000   0.8750000   0.1250000  )
[...]
        82           In  tau(  82) = (   0.6250000   0.1250000   0.1250000  )
        83           In  tau(  83) = (   0.1250000   0.6250000   0.1250000  )
        84           In  tau(  84) = (   0.6250000   0.6250000   0.1250000  )
        85           In  tau(  85) = (   0.1250000   0.1250000   0.6250000  )
        86           In  tau(  86) = (   0.6250000   0.1250000   0.6250000  )
        87           In  tau(  87) = (   0.1250000   0.6250000   0.6250000  )
        88           In  tau(  88) = (   0.6250000   0.6250000   0.6250000  )
        89           In  tau(  89) = (   0.3750000   0.1250000   0.3750000  )
        90           In  tau(  90) = (   0.8750000   0.1250000   0.3750000  )
        91           In  tau(  91) = (   0.3750000   0.6250000   0.3750000  )
        92           In  tau(  92) = (   0.8750000   0.6250000   0.3750000  )
        93           In  tau(  93) = (   0.3750000   0.1250000   0.8750000  )
        94           In  tau(  94) = (   0.8750000   0.1250000   0.8750000  )
        95           In  tau(  95) = (   0.3750000   0.6250000   0.8750000  )
        96           In  tau(  96) = (   0.8750000   0.6250000   0.8750000  )

     number of k points=    12
                       cart. coord. in units 2pi/alat
        k(    1) = (   0.1250000   0.1250000   0.1250000), wk =   0.1250000
        k(    2) = (   0.1250000   0.1250000   0.3750000), wk =   0.2500000
        k(    3) = (   0.1250000   0.3750000   0.3750000), wk =   0.1250000
        k(    4) = (   0.3750000   0.3750000   0.3750000), wk =   0.1250000
        k(    5) = (   0.1250000   0.1250000  -0.1250000), wk =   0.1250000
        k(    6) = (   0.1250000   0.1250000  -0.3750000), wk =   0.2500000
        k(    7) = (   0.3750000  -0.1250000   0.1250000), wk =   0.1250000
        k(    8) = (  -0.3750000  -0.1250000  -0.1250000), wk =   0.1250000
        k(    9) = (   0.3750000   0.1250000  -0.3750000), wk =   0.2500000
        k(   10) = (  -0.3750000  -0.1250000  -0.3750000), wk =   0.2500000
        k(   11) = (   0.1250000   0.3750000  -0.3750000), wk =   0.1250000
        k(   12) = (   0.3750000   0.3750000  -0.3750000), wk =   0.1250000

     Check: negative core charge=   -0.000001

     Initial potential from superposition of free atoms

     starting charge    1183.7547, renormalised to    1184.0000
     Starting wfcs are  864 randomized atomic wfcs

     Self-consistent Calculation

     iteration #  1     ecut=    60.00 Ry     beta= 0.70
     Davidson diagonalization with overlap
     ethr =  1.00E-02,  avg # of iterations =  2.0

     Threshold (ethr) on eigenvalues was too large:
     Diagonalizing with lowered threshold

     Davidson diagonalization with overlap
     ethr =  8.17E-05,  avg # of iterations =  6.0

     total energy              =  -12903.60269622 Ry
     estimated scf accuracy    <       1.40836461 Ry

[...]

     iteration #  5     ecut=    60.00 Ry     beta= 0.70
     Davidson diagonalization with overlap
     ethr =  1.01E-06,  avg # of iterations =  4.8

[...]

     iteration #  6     ecut=    60.00 Ry     beta= 0.70
[...]
    -4.2138  -4.2137  -4.2127  -4.2127  -4.2127  -4.2034  -4.2032  -4.2032
    -4.2030  -4.2030  -4.2030  -4.2029  -4.2028  -4.2028  -4.1985  -4.1985
    -4.1984  -4.1977  -4.1976  -4.1976  -4.1947  -4.1947  -4.1947  -4.1936
    -4.1935  -4.1935  -4.1935  -4.1934  -4.1934  -4.1914  -4.1914  -4.1914
    -4.1913  -4.1913  -4.1913  -4.1879  -4.1878  -4.1877  -4.1871  -4.1871
    -4.1870  -4.1870  -4.1870  -4.1870  -4.1829  -4.1761  -4.1760  -4.1760
    -4.1758  -4.1756  -4.1730  -4.1730  -4.1729  -4.1682  -4.1682  -4.1681
    -4.1665  -4.1659  -4.1658  -4.1534  -4.1531  -4.1530  -4.1522  -4.1522
    -4.1522  -4.1483  -4.1483  -4.1455  -4.1450  -4.1448  -4.1433  -4.1431
    -4.1428  -4.1427  -4.1425  -4.1423  -4.1368  -4.1367  -4.1366  -4.1363
    -4.1362  -4.1360  -4.1354  -4.1350  -4.1348  -4.1331  -4.1329  -4.1328
    -4.1325  -4.1324  -4.1323  -4.1306  -4.1304  -4.1300  -4.1158  -4.1156
    -4.1154  -4.1151  -4.1150  -4.1148  -4.1090  -4.1087  -4.1085  -4.1078
    -4.1076  -4.1073  -4.1057  -4.1055  -4.1055  -4.1051  -4.1051  -4.1049
    -4.0978  -4.0977  -4.0977  -4.0974  -4.0972  -4.0970  -4.0846  -4.0845
    -4.0842  -4.0841  -4.0837  -4.0836  -4.0650  -4.0648  -4.0647  -4.0594
    -4.0593  -4.0591  -4.0491  -4.0491  -4.0491  -4.0482  -4.0482  -4.0481
    -4.0416  -4.0413  -4.0412  -4.0412  -4.0412  -4.0411  -4.0252  -4.0252
    -4.0248  -4.0247  -4.0243  -4.0242  -4.0037  -4.0036  -4.0035  -4.0033
    -4.0032  -4.0031  -3.9827  -3.9823  -3.9822  -3.8846  -3.8846  -3.8846
    -3.8814  -3.8809  -3.8807  -3.8796  -3.8791  -3.8790  -3.8757  -3.8756
     0.8543   1.5821   1.5823   1.5831   2.0696   2.0698   2.0707   2.2919
     2.2921   2.2930   2.7623   2.7625   2.7627   2.7629   2.7632   2.7646
     2.9431   3.2183   3.2186   3.2195   3.3052   3.3063   3.3064   4.0756
     4.0760   4.0764   4.0900   4.0902   4.0913   4.4179   4.6168   4.6168
     4.6169   4.6174   4.6175   4.6185   4.9719   4.9720   4.9722   4.9726
     4.9726   4.9734   5.1432   5.1434   5.1439   5.4368   5.4369   5.4370
     5.4374   5.4374   5.4386   5.5600   5.5605   5.5608   5.6977   5.6977
     5.6984   5.8623   5.8625   5.8626   6.1052   6.1053   6.1055   6.1055
     6.1063   6.1064   6.1660   6.1661   6.1664   6.3311   6.3313   6.3315
     6.6360   6.6361   6.6363   6.6365   6.6366   6.6372   6.6405   6.6406
     6.6407   6.6936   6.7294   6.7296   6.7297   6.7298   6.7299   6.7300
     6.7354   6.7354   6.7578   6.7579   6.7580   6.8191   6.8194   6.8194
     6.8212   6.8213   6.8216   6.8769   6.8769   6.8770   6.8825   6.8828
     6.8828   6.8850   6.8852   6.8853   6.8907   6.8908   6.8983   6.8985
     6.8987   6.9458   6.9461   6.9462   6.9838   6.9839   6.9840   6.9841
     6.9844   6.9845   7.0138   7.0141   7.0141   7.0404   7.0405   7.0406
     7.1053   7.1054   7.1057   7.1057   7.1060   7.1062   7.1088   7.1091
     7.1092   7.1144   7.1146   7.1147   7.1185   7.1188   7.1189   7.1201
     7.1202   7.1203   7.1204   7.1205   7.1208   7.1216   7.1220   7.1221
     7.1260   7.1260   7.1261   7.1283   7.1285   7.1287   7.1890   7.1890
     7.1891   7.1944   7.1945   7.1947   7.1958   7.1961   7.1961   7.1962
     7.1962   7.1965   7.1991   7.1992   7.2019   7.2019   7.2020   7.2023
     7.2023   7.2025   7.2025   7.2028   7.2031   7.2032   7.2032   7.2033
     7.2035   7.2038   7.2086   7.2087   7.2087   7.2278   7.2280   7.2280
     7.2282   7.2282   7.2284   7.2462   7.2869   7.2869   7.2870   7.2871
     7.2872   7.2873   7.3684   7.3685   7.3685   7.4349   7.4349   7.4350
     7.4351   7.4352   7.4353   7.4623   7.4623   7.4624   7.6383   7.6383
     7.6384   7.6386   7.6388   7.6390   7.8685   7.8688   7.8690   7.9219
     7.9222   7.9223   8.1880   8.1880   8.1881   8.1884   8.1888   8.1892
     8.2729   8.2731   8.2732   8.2810   8.2812   8.2815   8.2815   8.2817
     8.2821   8.6201   8.6201   8.6202   8.6413   8.6414   8.6420   8.9546
     8.9546   8.9551   9.4099   9.4104   9.4105   9.4209   9.4210   9.4215
     9.7004   9.7009   9.7009   9.7081   9.7083   9.7086  10.2832  10.2833
    10.2838  10.3036  10.3041  10.3043  10.3985  10.3989  10.3992  10.4443

[...]

          k =-0.3750-0.1250-0.1250 (111627 PWs)   bands (ev):

[...]

          k =-0.3750-0.1250-0.3750 (111665 PWs)   bands (ev):

[...]

          k = 0.3750 0.3750-0.3750 (111652 PWs)   bands (ev):

    -4.4868  -4.4868  -4.4818  -4.4816  -4.4814  -4.4606  -4.4605  -4.4603
    -4.4552  -4.4552  -4.4551  -4.4540  -4.4538  -4.4538  -4.4349  -4.4348
    -4.4347  -4.4246  -4.4246  -4.4244  -4.4244  -4.4242  -4.4242  -4.4192
    -4.4192  -4.4189  -4.4189  -4.4187  -4.4187  -4.4049  -4.4047  -4.4045
    -4.4003  -4.4002  -4.4002  -4.4001  -4.4000  -4.3936  -4.3935  -4.3935
    -4.3813  -4.3812  -4.3812  -4.3764  -4.3762  -4.3760  -4.3711  -4.3710
    -4.3709  -4.3709  -4.3707  -4.3707  -4.3669  -4.3669  -4.3668  -4.3656
    -4.3647  -4.3646  -4.3645  -4.3644  -4.3643  -4.3643  -4.3546  -4.3545
    -4.3477  -4.3476  -4.3475  -4.3471  -4.3470  -4.3468  -4.3376  -4.3376
    -4.3375  -4.3331  -4.3328  -4.3327  -4.3323  -4.3322  -4.3322  -4.3293
    -4.3292  -4.3290  -4.3286  -4.3284  -4.3283  -4.3260  -4.3253  -4.3253
    -4.3251  -4.3250  -4.3248  -4.3247  -4.3120  -4.3119  -4.3119  -4.3049
    -4.3048  -4.3047  -4.3043  -4.3043  -4.2766  -4.2765  -4.2764  -4.2652
    -4.2651  -4.2649  -4.2649  -4.2646  -4.2645  -4.2507  -4.2505  -4.2504
    -4.2411  -4.2409  -4.2409  -4.2380  -4.2379  -4.2378  -4.2377  -4.2375
    -4.2375  -4.2284  -4.2283  -4.2283  -4.2271  -4.2270  -4.2270  -4.2268
    -4.2268  -4.2267  -4.2266  -4.2266  -4.2265  -4.2225  -4.2225  -4.2224
    -4.2212  -4.2211  -4.2210  -4.2205  -4.2204  -4.2202  -4.2132  -4.2131
    -4.2129  -4.2128  -4.2127  -4.2126  -4.2091  -4.2090  -4.2090  -4.2075
    -4.2075  -4.2074  -4.2026  -4.2025  -4.2024  -4.2024  -4.2023  -4.2023
    -4.2022  -4.2022  -4.2022  -4.2021  -4.2020  -4.2020  -4.2017  -4.2017
    -4.2017  -4.2006  -4.2004  -4.2004  -4.1995  -4.1995  -4.1994  -4.1993
    -4.1992  -4.1992  -4.1987  -4.1987  -4.1985  -4.1943  -4.1942  -4.1942
    -4.1942  -4.1941  -4.1941  -4.1922  -4.1921  -4.1920  -4.1916  -4.1916
    -4.1915  -4.1858  -4.1857  -4.1856  -4.1824  -4.1823  -4.1822  -4.1809
    -4.1808  -4.1805  -4.1796  -4.1796  -4.1795  -4.1794  -4.1792  -4.1790
    -4.1764  -4.1763  -4.1762  -4.1753  -4.1751  -4.1750  -4.1738  -4.1737
    -4.1735  -4.1724  -4.1723  -4.1721  -4.1720  -4.1719  -4.1719  -4.1507
    -4.1507  -4.1504  -4.1504  -4.1502  -4.1502  -4.1330  -4.1329  -4.1328
    -4.1240  -4.1239  -4.1239  -4.1239  -4.1202  -4.1201  -4.1095  -4.1095
    -4.1095  -4.1046  -4.1046  -4.1046  -4.1019  -4.1016  -4.1015  -4.1005
    -4.1003  -4.1001  -4.0992  -4.0991  -4.0988  -4.0987  -4.0984  -4.0983
    -4.0883  -4.0883  -4.0881  -4.0880  -4.0879  -4.0878  -4.0855  -4.0855
    -4.0852  -4.0852  -4.0851  -4.0850  -4.0802  -4.0800  -4.0800  -4.0779
    -4.0778  -4.0778  -4.0674  -4.0674  -4.0673  -4.0648  -4.0647  -4.0647
    -4.0397  -4.0395  -4.0393  -4.0367  -4.0367  -4.0367  -4.0272  -4.0271
    -4.0251  -4.0249  -4.0247  -3.9940  -3.9939  -3.9937  -3.9898  -3.9897
    -3.9895  -3.9894  -3.9892  -3.9891  -3.9871  -3.9870  -3.9868  -3.9868
    -3.9866  -3.9865  -3.9654  -3.9653  -3.9651  -3.9398  -3.9397  -3.9397
    -3.9382  -3.9380  -3.9378  -3.9316  -3.9314  -3.9312  -3.9298  -3.9298
     1.2154   1.4557   1.4561   1.4565   1.6943   1.6946   1.6950   1.9301
     2.8964   2.8968   2.8971   3.1130   3.1136   3.1137   3.1139   3.1142
     3.1152   3.3127   3.3131   3.3139   3.5849   3.5854   3.5861   3.7819
     3.7825   3.7826   3.7827   3.7830   3.7840   3.9221   3.9226   3.9227
     4.5409   4.5411   4.5421   4.6977   4.6985   4.6989   5.0170   5.0176
     5.0177   5.0179   5.0181   5.0188   5.1906   5.1913   5.1913   5.1915
     5.1917   5.1924   5.4459   5.4465   5.4467   5.5946   5.5948   5.5952
     5.6625   5.9849   5.9852   5.9855   6.2249   6.2252   6.2255   6.4076
     6.4484   6.4488   6.4491   6.5567   6.5568   6.5569   6.5570   6.5574
     6.5575   6.6377   6.6380   6.6380   6.7916   6.7917   6.7997   6.7998
     6.8000   6.8000   6.8003   6.8006   6.8079   6.8081   6.8083   6.8096
     6.8098   6.8100   6.8180   6.8180   6.8182   6.8194   6.8195   6.8199
     6.8245   6.8245   6.8251   6.8592   6.8593   6.8596   6.8596   6.8598
     6.9400   6.9402   6.9404   6.9534   6.9535   6.9536   6.9543   6.9544
     6.9544   6.9546   6.9546   6.9549   6.9743   6.9744   6.9744   6.9746
     6.9747   6.9750   6.9972   6.9973   6.9974   7.0270   7.0272   7.0274
     7.0341   7.0342   7.0346   7.0572   7.0574   7.0574   7.0577   7.0577
     7.0578   7.0847   7.0848   7.0850   7.0998   7.1001   7.1003   7.1184
     7.1184   7.1185   7.1187   7.1187   7.1188   7.1563   7.1565   7.1565
     7.1639   7.1641   7.1642   7.1662   7.1663   7.1664   7.1685   7.1688
     7.1688   7.1818   7.1818   7.1871   7.1873   7.1873   7.1876   7.1877
     7.1923   7.1925   7.1926   7.1932   7.1935   7.1935   7.1949   7.1952
     7.1952   7.1964   7.1966   7.1966   7.1967   7.1968   7.1970   7.2004
     7.2007   7.2008   7.2028   7.2028   7.2029   7.2030   7.2031   7.2032
     7.2052   7.2053   7.2053   7.2076   7.2078   7.2079   7.2080   7.2080
     7.2082   7.2376   7.2376   7.2377   7.2563   7.2564   7.2565   7.3172
     7.3172   7.3173   7.3176   7.3176   7.3178   7.5300   7.5301   7.5307
     7.8034   7.9395   7.9396   7.9397   7.9397   7.9399   7.9404   7.9596
     7.9597   7.9600   8.0904   8.0906   8.0909   8.1988   8.1989   8.1992
     8.6122   8.6123   8.6127   8.6416   8.6421   8.6424   8.6424   8.6426
     8.6430   8.6853   8.6855   8.6858   8.9748   8.9749   8.9757   9.1504
     9.1508   9.1509   9.1514   9.1514   9.1515   9.1517   9.1519   9.1526
     9.2270   9.4909   9.4912   9.4913   9.5420   9.5420   9.5422   9.5425
     9.5425   9.5433   9.7488   9.7490   9.7492  10.0407  10.0408  10.0409

     highest occupied level (ev):    10.4443

!    total energy              =  -12903.96945799 Ry
     estimated scf accuracy    <       0.00000009 Ry

     The total energy is the sum of the following terms:
     one-electron contribution =   -3996.75250578 Ry
     hartree contribution      =    3221.79563823 Ry
     xc contribution           =   -4386.34449531 Ry
     ewald contribution        =   -7742.66809513 Ry

     convergence has been achieved in  32 iterations

     Forces acting on atoms (cartesian axes, Ry/au):

     atom    1 type  1   force =     0.00000210    0.00003334    0.00003334
     atom    2 type  1   force =     0.00016953   -0.00016672   -0.00016672
     atom    3 type  1   force =    -0.00000786   -0.00003108   -0.00005186
     atom    4 type  1   force =     0.00001226   -0.00003627   -0.00005903
     atom    5 type  1   force =    -0.00000786   -0.00005186   -0.00003108
     atom    6 type  1   force =     0.00001226   -0.00005903   -0.00003627
     atom    7 type  1   force =    -0.00003948    0.00005868    0.00005868
     atom    8 type  1   force =     0.00003344    0.00006171    0.00006171
     atom    9 type  1   force =     0.00016098    0.00024901   -0.00024901
     atom   10 type  1   force =     0.00001011    0.00002259   -0.00002259
     atom   11 type  1   force =    -0.00003029   -0.00003715    0.00002585
     atom   12 type  1   force =     0.00004214   -0.00000131    0.00005891
     atom   13 type  1   force =    -0.00003029   -0.00002585    0.00003715
     atom   14 type  1   force =     0.00004214   -0.00005891    0.00000131
     atom   15 type  1   force =    -0.00003000    0.00003429   -0.00003429
     atom   16 type  1   force =     0.00003416    0.00006174   -0.00006174
     atom   17 type  1   force =     0.00000210   -0.00003334   -0.00003334
     atom   18 type  1   force =     0.00016953    0.00016672    0.00016672
     atom   19 type  1   force =    -0.00000786    0.00003108    0.00005186
     atom   20 type  1   force =     0.00001226    0.00003627    0.00005903
     atom   21 type  1   force =    -0.00000786    0.00005186    0.00003108
     atom   22 type  1   force =     0.00001226    0.00005903    0.00003627
     atom   23 type  1   force =    -0.00003948   -0.00005868   -0.00005868
     atom   24 type  1   force =     0.00003344   -0.00006171   -0.00006171
     atom   25 type  1   force =     0.00016098   -0.00024901    0.00024901
     atom   26 type  1   force =     0.00001011   -0.00002259    0.00002259
     atom   27 type  1   force =    -0.00003029    0.00003715   -0.00002585
     atom   28 type  1   force =     0.00004214    0.00000131   -0.00005891
     atom   29 type  1   force =    -0.00003029    0.00002585   -0.00003715
     atom   30 type  1   force =     0.00004214    0.00005891   -0.00000131
     atom   31 type  1   force =    -0.00003000   -0.00003429    0.00003429
     atom   32 type  1   force =     0.00003416   -0.00006174    0.00006174
     atom   33 type  2   force =    -0.00148677    0.00000000    0.00000000
     atom   34 type  2   force =     0.00004777    0.00000000    0.00000000
     atom   35 type  2   force =    -0.00000809    0.00000000    0.00000000
     atom   36 type  2   force =     0.00001144    0.00000000    0.00000000
     atom   37 type  2   force =    -0.00000809    0.00000000    0.00000000
     atom   38 type  2   force =     0.00001144    0.00000000    0.00000000
     atom   39 type  2   force =     0.00001865    0.00000000    0.00000000
     atom   40 type  2   force =     0.00014155    0.00000000    0.00000000
     atom   41 type  2   force =     0.00006456   -0.00003627   -0.00007058
     atom   42 type  2   force =     0.00005888    0.00003165    0.00000183
     atom   43 type  2   force =     0.00001461   -0.00004718    0.00003738
     atom   44 type  2   force =     0.00006322    0.00002257    0.00004432
     atom   45 type  2   force =     0.00006456    0.00003627    0.00007058
     atom   46 type  2   force =     0.00005888   -0.00003165   -0.00000183
     atom   47 type  2   force =     0.00001461    0.00004718   -0.00003738
     atom   48 type  2   force =     0.00006322   -0.00002257   -0.00004432
     atom   49 type  2   force =     0.00009012   -0.00004353   -0.00004353
     atom   50 type  2   force =     0.00009112    0.00006347    0.00006347
     atom   51 type  2   force =     0.00000148   -0.00000061    0.00000061
     atom   52 type  2   force =    -0.00000112    0.00000736   -0.00000736
     atom   53 type  2   force =     0.00000148    0.00000061   -0.00000061
     atom   54 type  2   force =    -0.00000112   -0.00000736    0.00000736
     atom   55 type  2   force =     0.00009012    0.00004353    0.00004353
     atom   56 type  2   force =     0.00009112   -0.00006347   -0.00006347
     atom   57 type  2   force =     0.00006456   -0.00007058   -0.00003627
     atom   58 type  2   force =     0.00005888    0.00000183    0.00003165
     atom   59 type  2   force =     0.00006456    0.00007058    0.00003627
     atom   60 type  2   force =     0.00005888   -0.00000183   -0.00003165
[...]
     atom   82 type  2   force =     0.00035139    0.00000000    0.00000000
     atom   83 type  2   force =    -0.00000949    0.00000000    0.00000000
     atom   84 type  2   force =     0.00001346    0.00000000    0.00000000
     atom   85 type  2   force =    -0.00000949    0.00000000    0.00000000
     atom   86 type  2   force =     0.00001346    0.00000000    0.00000000
     atom   87 type  2   force =    -0.00013759    0.00000000    0.00000000
     atom   88 type  2   force =    -0.00002240    0.00000000    0.00000000
     atom   89 type  2   force =    -0.00011963    0.00001573   -0.00004943
     atom   90 type  2   force =    -0.00001550   -0.00002721   -0.00002464
     atom   91 type  2   force =    -0.00004892    0.00002137    0.00002961
     atom   92 type  2   force =    -0.00002992   -0.00004173    0.00005107
     atom   93 type  2   force =    -0.00011963   -0.00001573    0.00004943
     atom   94 type  2   force =    -0.00001550    0.00002721    0.00002464
     atom   95 type  2   force =    -0.00004892   -0.00002137   -0.00002961
     atom   96 type  2   force =    -0.00002992    0.00004173   -0.00005107

     Total force =     0.001868     Total SCF correction =     0.001659
     SCF correction compared to forces is large: reduce conv_thr to get better values

     Computing stress (Cartesian axis) and pressure

          total   stress  (Ry/bohr**3)                   (kbar)     P=       -6.04
  -0.00004132   0.00000000   0.00000000           -6.08        0.00        0.00
   0.00000000  -0.00004089   0.00000096            0.00       -6.02        0.14
   0.00000000   0.00000096  -0.00004089            0.00        0.14       -6.02

     General routines

     Parallel routines

   This run was terminated on:  14: 5:32  20May2023

   JOB DONE.