     Program PWSCF v.7.2 starts on  8May2023 at  6: 9:18

     Reading input from ./DFTData/AgIn2/relax/Relax_V700.00_0.in
Warning: card &CELL ignored
Warning: card / ignored

     Current dimensions of program PWSCF are:
     Max number of different atomic species (ntypx) = 10
     Max number of k-points (npk) =  40000
     Max angular momentum in pseudopotentials (lmaxx) =  4
     file In.pbe-dn-rrkjus_psl.1.0.0.UPF: wavefunction(s)  5S 4D renormalized

     R & G space division:  proc/nbgrp/npool/nimage =      20
     Subspace diagonalization in iterative solution of the eigenvalue problem:
     a serial algorithm will be used

     Using Slab Decomposition

     bravais-lattice index     =            7
     lattice parameter (alat)  =      12.1233  a.u.
     unit-cell volume          =     700.0000 (a.u.)^3
     number of atoms/cell      =            6
     number of atomic types    =            2
     number of electrons       =        74.00
     number of Kohn-Sham states=           37
     kinetic-energy cutoff     =     100.0000  Ry
     charge density cutoff     =     400.0000  Ry
     scf convergence threshold =      1.0E-06
     mixing beta               =       0.7000
     number of iterations used =            8  plain     mixing
     energy convergence thresh.=      1.0E-04
     force convergence thresh. =      1.0E-02
     Exchange-correlation= PBE
                           (   1   4   3   4   0   0   0)
     nstep                     =           50

     celldm(1)=  12.123308  celldm(2)=   0.000000  celldm(3)=   0.785714
     celldm(4)=   0.000000  celldm(5)=   0.000000  celldm(6)=   0.000000

     crystal axes: (cart. coord. in units of alat)
               a(1) = (   0.500000  -0.500000   0.392857 )
               a(2) = (   0.500000   0.500000   0.392857 )
               a(3) = (  -0.500000  -0.500000   0.392857 )

     reciprocal axes: (cart. coord. in units 2 pi/alat)
               b(1) = (  1.000000 -1.000000  0.000000 )
               b(2) = (  0.000000  1.000000  1.272727 )
               b(3) = ( -1.000000  0.000000  1.272727 )

     PseudoPot. # 1 for Ag read from file:
     ./pseudos/Ag.pbe-n-rrkjus_psl.1.0.0.UPF
     MD5 check sum: d841cbfac2b0861aec33b46768a516bf
     Pseudo is Ultrasoft + core correction, Zval = 11.0
     Generated using &quot;atomic&quot; code by A. Dal Corso  v.6.2.2
     Using radial grid of 1237 points,  6 beta functions with:
                l(1) =   0
                l(2) =   0
                l(3) =   1
                l(4) =   1
                l(5) =   2
                l(6) =   2
     Q(r) pseudized with 0 coefficients

     PseudoPot. # 2 for In read from file:
     ./pseudos/In.pbe-dn-rrkjus_psl.1.0.0.UPF
     MD5 check sum: 7267d4f9f57825930b619e54710f1f3b
     Pseudo is Ultrasoft + core correction, Zval = 13.0
     Generated using &quot;atomic&quot; code by A. Dal Corso  v.6.3
     Using radial grid of 1241 points,  6 beta functions with:
                l(1) =   0
                l(2) =   0
                l(3) =   1
                l(4) =   1
                l(5) =   2
                l(6) =   2
     Q(r) pseudized with 0 coefficients

     atomic species   valence    mass     pseudopotential
        Ag            11.00   107.86820     Ag( 1.00)
        In            13.00   114.81800     In( 1.00)

     16 Sym. Ops., with inversion, found ( 8 have fractional translation)

   Cartesian axes

     site n.     atom                  positions (alat units)
         1           Ag  tau(   1) = (   0.0000000   0.0000000   0.1964286  )
         2           Ag  tau(   2) = (   0.0000000   0.0000000  -0.1964286  )
         3           In  tau(   3) = (   0.1304000   0.6304000  -0.0000000  )
         4           In  tau(   4) = (  -0.1304000   0.3696000  -0.0000000  )
         5           In  tau(   5) = (   0.3696005   0.1303995   0.0000004  )
         6           In  tau(   6) = (   0.6303995  -0.1303995  -0.0000004  )

     number of k points=   102

     Number of k-points >= 100: set verbosity='high' to print them.

     Initial potential from superposition of free atoms

     starting charge      73.9843, renormalised to      74.0000
     Starting wfcs are   54 randomized atomic wfcs

     Self-consistent Calculation

     iteration #  1     ecut=   100.00 Ry     beta= 0.70
     Davidson diagonalization with overlap
     ethr =  1.00E-02,  avg # of iterations =  2.0

     Threshold (ethr) on eigenvalues was too large:
     Diagonalizing with lowered threshold

     Davidson diagonalization with overlap
     ethr =  7.68E-05,  avg # of iterations =  6.1

     total energy              =    -729.16095673 Ry
     estimated scf accuracy    <       0.09569515 Ry

[...]

     End of self-consistent calculation

     Number of k-points >= 100: set verbosity='high' to print the bands.

     highest occupied level (ev):    18.4565

!    total energy              =    -729.18506579 Ry
     estimated scf accuracy    <       0.00000044 Ry

     The total energy is the sum of the following terms:
     one-electron contribution =     -89.78542152 Ry
     hartree contribution      =     126.47624958 Ry
     xc contribution           =    -230.63306743 Ry
     ewald contribution        =    -535.24282642 Ry

     convergence has been achieved in   8 iterations

     Forces acting on atoms (cartesian axes, Ry/au):

     atom    1 type  1   force =     0.00000000    0.00000000   -0.00000000
     atom    2 type  1   force =     0.00000000    0.00000000   -0.00000000
     atom    3 type  2   force =     0.14413746    0.14413746    0.00000000
     atom    4 type  2   force =    -0.14413746   -0.14413746    0.00000000
     atom    5 type  2   force =    -0.14413746    0.14413746    0.00000000
     atom    6 type  2   force =     0.14413746   -0.14413746    0.00000000
     The non-local contrib.  to forces
     atom    1 type  1   force =    -0.00000000    0.00000000    0.00000000
     atom    2 type  1   force =     0.00000000    0.00000000   -0.00000000
     atom    3 type  2   force =     0.12108191    0.12108191    0.00000000
     atom    4 type  2   force =    -0.12108191   -0.12108191    0.00000000
     atom    5 type  2   force =    -0.12108191    0.12108191    0.00000000
     atom    6 type  2   force =     0.12108191   -0.12108191   -0.00000000
     The ionic contribution  to forces
     atom    1 type  1   force =    -0.00002010   -0.00002010    0.00000000
     atom    2 type  1   force =     0.00002010    0.00002010   -0.00000000
     atom    3 type  2   force =     3.57151928    3.57151928   -0.00000000
     atom    4 type  2   force =    -3.57151928   -3.57151928   -0.00000000
     atom    5 type  2   force =    -3.57164999    3.57164999   -0.00003720
     atom    6 type  2   force =     3.57164999   -3.57164999    0.00003720
     The local contribution  to forces
     atom    1 type  1   force =     0.00000000   -0.00000000    0.00000000
     atom    2 type  1   force =    -0.00000000    0.00000000   -0.00000000
     atom    3 type  2   force =    -3.52849738   -3.52849738    0.00000000
     atom    4 type  2   force =     3.52849738    3.52849738    0.00000000
     atom    5 type  2   force =     3.52809922   -3.52809922   -0.00032922
     atom    6 type  2   force =    -3.52809922    3.52809922    0.00032922
     The core correction contribution to forces
     atom    1 type  1   force =    -0.00000000   -0.00000000   -0.00000000
     atom    2 type  1   force =     0.00000000    0.00000000    0.00000000
     atom    3 type  2   force =    -0.01886565   -0.01886565   -0.00000000
     atom    4 type  2   force =     0.01886565    0.01886565    0.00000000
     atom    5 type  2   force =     0.01882685   -0.01882685   -0.00003064
     atom    6 type  2   force =    -0.01882685    0.01882685    0.00003064
     The Hubbard contrib.    to forces
     atom    1 type  1   force =     0.00000000    0.00000000    0.00000000
     atom    2 type  1   force =     0.00000000    0.00000000    0.00000000
     atom    3 type  2   force =     0.00000000    0.00000000    0.00000000
     atom    4 type  2   force =     0.00000000    0.00000000    0.00000000
     atom    5 type  2   force =     0.00000000    0.00000000    0.00000000
     atom    6 type  2   force =     0.00000000    0.00000000    0.00000000
     The SCF correction term to forces
     atom    1 type  1   force =     0.00000000    0.00000000   -0.00000000
     atom    2 type  1   force =    -0.00000000   -0.00000000    0.00000000
     atom    3 type  2   force =    -0.00138454   -0.00138454    0.00000000
     atom    4 type  2   force =     0.00138454    0.00138454   -0.00000000
     atom    5 type  2   force =     0.00138454   -0.00138454    0.00000000
     atom    6 type  2   force =    -0.00138454    0.00138454   -0.00000000

     Total force =     0.407682     Total SCF correction =     0.003916

     BFGS Geometry Optimization
     Energy error            =      0.0E+00 Ry
     Gradient error          =      1.4E-01 Ry/Bohr

     number of scf cycles    =   1
     number of bfgs steps    =   0

     energy             new  =    -729.1850657915 Ry

     new trust radius        =       0.2038411450 bohr
     new conv_thr            =       0.0000010000 Ry

ATOMIC_POSITIONS (crystal)
Ag            0.0000000000        0.2500000000        0.2500000000
Ag            0.0000000000       -0.2500000000       -0.2500000000
In           -0.5000000000        0.6422892846       -0.1422892846
In           -0.5000000000        0.3577107154        0.1422892846
In            0.2154224308        0.1422892846       -0.3577107154
In            0.7845775692       -0.1422892846       -0.6422892846

     Writing config-only to output data dir ./tmp/AgIn2_Relax.save/
     NEW-OLD atomic charge density approx. for the potential

[...]

     iteration #  1     ecut=   100.00 Ry     beta= 0.70
     Davidson diagonalization with overlap
     c_bands:  1 eigenvalues not converged
     c_bands:  1 eigenvalues not converged
     c_bands:  1 eigenvalues not converged
     c_bands:  1 eigenvalues not converged
     c_bands:  1 eigenvalues not converged
     c_bands:  1 eigenvalues not converged
     c_bands:  1 eigenvalues not converged
     c_bands:  1 eigenvalues not converged
     c_bands:  1 eigenvalues not converged
     c_bands:  1 eigenvalues not converged
     c_bands:  1 eigenvalues not converged
     c_bands:  1 eigenvalues not converged
     c_bands:  1 eigenvalues not converged
     c_bands:  1 eigenvalues not converged
     c_bands:  1 eigenvalues not converged
     c_bands:  1 eigenvalues not converged
     c_bands:  1 eigenvalues not converged
     c_bands:  1 eigenvalues not converged
     c_bands:  1 eigenvalues not converged
     ethr =  1.00E-06,  avg # of iterations = 15.7

[...]

     Total force =     0.121081     Total SCF correction =     0.001116
     Energy error            =      1.0E-01 Ry
     Gradient error          =      4.3E-02 Ry/Bohr

[...]

     energy             old  =    -729.1850657915 Ry
     energy             new  =    -729.2870300198 Ry

     CASE: energy            _new < energy            _old

[...]

     iteration #  5     ecut=   100.00 Ry     beta= 0.70
     Davidson diagonalization with overlap
     c_bands:  1 eigenvalues not converged
     c_bands:  1 eigenvalues not converged
     ethr =  1.25E-10,  avg # of iterations =  7.3

[...]

     Total force =     0.007014     Total SCF correction =     0.000123
     Energy error            =      2.5E-03 Ry
     Gradient error          =      2.5E-03 Ry/Bohr

     number of scf cycles    =   4
     number of bfgs steps    =   3

     energy             old  =    -729.3008315282 Ry
     energy             new  =    -729.3033155029 Ry

     CASE: energy            _new < energy            _old

     new trust radius        =       0.0092996740 bohr
     new conv_thr            =       0.0000000100 Ry

ATOMIC_POSITIONS (crystal)
Ag            0.0000000000        0.2500000000        0.2500000000
Ag            0.0000000000       -0.2500000000       -0.2500000000
In           -0.5000000000        0.6506920213       -0.1506920213
In           -0.5000000000        0.3493079787        0.1506920213
In            0.1986169573        0.1506920213       -0.3493079787
In            0.8013830427       -0.1506920213       -0.6506920213

     Writing config-only to output data dir ./tmp/AgIn2_Relax.save/
     NEW-OLD atomic charge density approx. for the potential

     Self-consistent Calculation

[...]

     Threshold (ethr) on eigenvalues was too large:
     Diagonalizing with lowered threshold

     Davidson diagonalization with overlap
     ethr =  6.37E-09,  avg # of iterations =  9.0

[...]

     total energy              =    -729.30338573 Ry
     estimated scf accuracy    <       0.00000013 Ry

     iteration #  4     ecut=   100.00 Ry     beta= 0.70
     Davidson diagonalization with overlap
     ethr =  1.75E-10,  avg # of iterations =  3.2

     End of self-consistent calculation

     Number of k-points >= 100: set verbosity='high' to print the bands.

     highest occupied level (ev):    19.0883

!    total energy              =    -729.30338576 Ry
     estimated scf accuracy    <          3.3E-09 Ry

     The total energy is the sum of the following terms:
     one-electron contribution =     -85.67146303 Ry
     hartree contribution      =     124.59348689 Ry
     xc contribution           =    -230.57704557 Ry
     ewald contribution        =    -537.64836405 Ry

     convergence has been achieved in   4 iterations

     Forces acting on atoms (cartesian axes, Ry/au):

     atom    1 type  1   force =    -0.00000000    0.00000000    0.00000000
     atom    2 type  1   force =    -0.00000000    0.00000000    0.00000000
     atom    3 type  2   force =     0.00012151    0.00012151    0.00000000
     atom    4 type  2   force =    -0.00012151   -0.00012151    0.00000000
     atom    5 type  2   force =    -0.00012151    0.00012151   -0.00000000
     atom    6 type  2   force =     0.00012151   -0.00012151   -0.00000000
     The non-local contrib.  to forces
     atom    1 type  1   force =     0.00000000   -0.00000000   -0.00000000
     atom    2 type  1   force =     0.00000000   -0.00000000   -0.00000000
     atom    3 type  2   force =     0.08045988    0.08045988   -0.00000000
     atom    4 type  2   force =    -0.08045988   -0.08045988   -0.00000000
     atom    5 type  2   force =    -0.08045988    0.08045988    0.00000000
     atom    6 type  2   force =     0.08045988   -0.08045988   -0.00000000
     The ionic contribution  to forces
     atom    1 type  1   force =    -0.00002355   -0.00002355   -0.00000000
     atom    2 type  1   force =     0.00002355    0.00002355    0.00000000
     atom    3 type  2   force =    -0.81725216   -0.81725216   -0.00000000
     atom    4 type  2   force =     0.81725216    0.81725216    0.00000000
     atom    5 type  2   force =     0.81715737   -0.81715737   -0.00004986
     atom    6 type  2   force =    -0.81715737    0.81715737    0.00004986
     The local contribution  to forces
     atom    1 type  1   force =    -0.00000000   -0.00000000   -0.00000000
     atom    2 type  1   force =     0.00000000    0.00000000    0.00000000
     atom    3 type  2   force =     0.74013514    0.74013514    0.00000000
     atom    4 type  2   force =    -0.74013514   -0.74013514   -0.00000000
     atom    5 type  2   force =    -0.74055243    0.74055243   -0.00032864
     atom    6 type  2   force =     0.74055243   -0.74055243    0.00032864
     The core correction contribution to forces
     atom    1 type  1   force =    -0.00000000   -0.00000000   -0.00000000
     atom    2 type  1   force =     0.00000000    0.00000000    0.00000000
     atom    3 type  2   force =    -0.00351839   -0.00351839    0.00000000
     atom    4 type  2   force =     0.00351839    0.00351839    0.00000000
     atom    5 type  2   force =     0.00347948   -0.00347948   -0.00003060
     atom    6 type  2   force =    -0.00347948    0.00347948    0.00003060
     The Hubbard contrib.    to forces
     atom    1 type  1   force =     0.00000000    0.00000000    0.00000000
     atom    2 type  1   force =     0.00000000    0.00000000    0.00000000
     atom    3 type  2   force =     0.00000000    0.00000000    0.00000000
     atom    4 type  2   force =     0.00000000    0.00000000    0.00000000
     atom    5 type  2   force =     0.00000000    0.00000000    0.00000000
     atom    6 type  2   force =     0.00000000    0.00000000    0.00000000
     The SCF correction term to forces
     atom    1 type  1   force =     0.00000000    0.00000000    0.00000000
     atom    2 type  1   force =    -0.00000000   -0.00000000    0.00000000
     atom    3 type  2   force =     0.00002155    0.00002155   -0.00000000
     atom    4 type  2   force =    -0.00002155   -0.00002155   -0.00000000
     atom    5 type  2   force =    -0.00002155    0.00002155    0.00000000
     atom    6 type  2   force =     0.00002155   -0.00002155   -0.00000000

     Total force =     0.000344     Total SCF correction =     0.000061
     SCF correction compared to forces is large: reduce conv_thr to get better values
     Energy error            =      7.0E-05 Ry
     Gradient error          =      1.2E-04 Ry/Bohr

     bfgs converged in   5 scf cycles and   4 bfgs steps
     (criteria: energy <  1.0E-04 Ry, force <  1.0E-02 Ry/Bohr)

     End of BFGS Geometry Optimization

     Final energy             =    -729.3033857582 Ry

     File ./tmp/AgIn2_Relax.bfgs deleted, as requested
Begin final coordinates

ATOMIC_POSITIONS (crystal)
Ag            0.0000000000        0.2500000000        0.2500000000
Ag            0.0000000000       -0.2500000000       -0.2500000000
In           -0.5000000000        0.6506920213       -0.1506920213
In           -0.5000000000        0.3493079787        0.1506920213
In            0.1986169573        0.1506920213       -0.3493079787
In            0.8013830427       -0.1506920213       -0.6506920213
End final coordinates

     Writing all to output data dir ./tmp/AgIn2_Relax.save/

     General routines

     Parallel routines

   This run was terminated on:   7: 5:42   8May2023

   JOB DONE.
Note: The following floating-point exceptions are signalling: IEEE_INVALID_FLAG